 Entering Gaussian System, Link 0=g09
 Input=/home/lpassaglia.iquir/01_DP4+/01_RS_Denuevo_011.gjc
 Output=/home/lpassaglia.iquir/01_DP4+/01_RS_Denuevo_011.log
 Initial command:
 /opt/ohpc/pub/apps/software/Gaussian/09/AMD64.SSE4a-enabled/g09/l1.exe /local/lpassaglia.iquir/Gau-298931.inp -scrdir=/local/lpassaglia.iquir/
 Entering Link 1 = /opt/ohpc/pub/apps/software/Gaussian/09/AMD64.SSE4a-enabled/g09/l1.exe PID=    298940.
  
 Copyright (c) 1988,1990,1992,1993,1995,1998,2003,2009,2011,
            Gaussian, Inc.  All Rights Reserved.
  
 This is part of the Gaussian(R) 09 program.  It is based on
 the Gaussian(R) 03 system (copyright 2003, Gaussian, Inc.),
 the Gaussian(R) 98 system (copyright 1998, Gaussian, Inc.),
 the Gaussian(R) 94 system (copyright 1995, Gaussian, Inc.),
 the Gaussian 92(TM) system (copyright 1992, Gaussian, Inc.),
 the Gaussian 90(TM) system (copyright 1990, Gaussian, Inc.),
 the Gaussian 88(TM) system (copyright 1988, Gaussian, Inc.),
 the Gaussian 86(TM) system (copyright 1986, Carnegie Mellon
 University), and the Gaussian 82(TM) system (copyright 1983,
 Carnegie Mellon University). Gaussian is a federally registered
 trademark of Gaussian, Inc.
  
 This software contains proprietary and confidential information,
 including trade secrets, belonging to Gaussian, Inc.
  
 This software is provided under written license and may be
 used, copied, transmitted, or stored only in accord with that
 written license.
  
 The following legend is applicable only to US Government
 contracts under FAR:
  
                    RESTRICTED RIGHTS LEGEND
  
 Use, reproduction and disclosure by the US Government is
 subject to restrictions as set forth in subparagraphs (a)
 and (c) of the Commercial Computer Software - Restricted
 Rights clause in FAR 52.227-19.
  
 Gaussian, Inc.
 340 Quinnipiac St., Bldg. 40, Wallingford CT 06492
  
  
 ---------------------------------------------------------------
 Warning -- This program may not be used in any manner that
 competes with the business of Gaussian, Inc. or will provide
 assistance to any competitor of Gaussian, Inc.  The licensee
 of this program is prohibited from giving any competitor of
 Gaussian, Inc. access to this program.  By using this program,
 the user acknowledges that Gaussian, Inc. is engaged in the
 business of creating and licensing software in the field of
 computational chemistry and represents and warrants to the
 licensee that it is not a competitor of Gaussian, Inc. and that
 it will not use this program in any manner prohibited above.
 ---------------------------------------------------------------
  

 Cite this work as:
 Gaussian 09, Revision C.01,
 M. J. Frisch, G. W. Trucks, H. B. Schlegel, G. E. Scuseria, 
 M. A. Robb, J. R. Cheeseman, G. Scalmani, V. Barone, B. Mennucci, 
 G. A. Petersson, H. Nakatsuji, M. Caricato, X. Li, H. P. Hratchian, 
 A. F. Izmaylov, J. Bloino, G. Zheng, J. L. Sonnenberg, M. Hada, 
 M. Ehara, K. Toyota, R. Fukuda, J. Hasegawa, M. Ishida, T. Nakajima, 
 Y. Honda, O. Kitao, H. Nakai, T. Vreven, J. A. Montgomery, Jr., 
 J. E. Peralta, F. Ogliaro, M. Bearpark, J. J. Heyd, E. Brothers, 
 K. N. Kudin, V. N. Staroverov, T. Keith, R. Kobayashi, J. Normand, 
 K. Raghavachari, A. Rendell, J. C. Burant, S. S. Iyengar, J. Tomasi, 
 M. Cossi, N. Rega, J. M. Millam, M. Klene, J. E. Knox, J. B. Cross, 
 V. Bakken, C. Adamo, J. Jaramillo, R. Gomperts, R. E. Stratmann, 
 O. Yazyev, A. J. Austin, R. Cammi, C. Pomelli, J. W. Ochterski, 
 R. L. Martin, K. Morokuma, V. G. Zakrzewski, G. A. Voth, 
 P. Salvador, J. J. Dannenberg, S. Dapprich, A. D. Daniels, 
 O. Farkas, J. B. Foresman, J. V. Ortiz, J. Cioslowski, 
 and D. J. Fox, Gaussian, Inc., Wallingford CT, 2010.
 
 ******************************************
 Gaussian 09:  AM64L-G09RevC.01 23-Sep-2011
                23-Oct-2024 
 ******************************************
 %nprocshared=4
 Will use up to    4 processors via shared memory.
 ---------------------------------------------------
 # mPW1PW91/GenECP scrf=(PCM,solvent=chloroform) nmr
 ---------------------------------------------------
 1/38=1/1;
 2/12=2,17=6,18=5,40=1/2;
 3/5=7,11=2,16=1,17=8,25=1,30=1,70=2201,72=7,74=-7/1,2,8,3;
 4//1;
 5/5=2,38=5,53=7/2;
 8/6=1,10=90,11=11/1;
 10/13=100,45=16/2;
 6/7=2,8=2,9=2,10=2,28=1/1;
 99/9=1/99;
 -------
 comment
 -------
 Charge =  0 Multiplicity = 1
 Symbolic Z-Matrix:
 6                    -3.88856   2.35213  -0.34777 
 6                    -2.76686   1.55995   1.77423 
 6                     0.87828  -1.89388   1.61476 
 6                     3.7499    3.90188   0.45567 
 6                     5.39693  -2.82177  -0.47054 
 6                     4.35287  -3.65011  -0.03334 
 6                     5.18996  -1.45261  -0.53468 
 6                     3.124    -3.11714   0.33415 
 6                     0.72501   2.82155  -0.26109 
 6                     3.95362  -0.89255  -0.17642 
 6                     2.90725  -1.7253    0.26233 
 6                     2.0471    2.41531  -0.29202 
 6                    -0.29336   1.88556  -0.06804 
 6                     2.39621   1.05639  -0.04515 
 6                    -0.02422   0.52766   0.15302 
 6                     1.34581   0.13485   0.25198 
 6                     3.78562   0.57414  -0.19553 
 6                    -1.18324  -0.46618   0.08409 
 6                    -2.44483   0.24461  -0.42597 
 6                    -2.69577   1.60108   0.24273 
 53                   -4.17572  -1.16572  -0.24341 
 7                     1.68356  -1.16679   0.63449 
 8                     4.75962   1.31163  -0.36887 
 8                    -0.80638  -1.5098   -0.80636 
 8                     2.95871   3.37702  -0.61473 
 8                    -1.55183   2.4041   -0.15843 
 1                    -3.8385    2.36159  -1.44108 
 1                    -4.83273   1.89597  -0.04113 
 1                    -3.86769   3.3873    0.00627 
 1                    -3.61324   0.95317   2.10915 
 1                    -1.85127   1.15164   2.21153 
 1                    -2.89728   2.57754   2.15427 
 1                     1.54799  -2.44809   2.27675 
 1                     0.33045  -1.17675   2.22792 
 1                     0.17444  -2.58926   1.14719 
 1                     4.35515   4.69544   0.01263 
 1                     3.10305   4.32862   1.23443 
 1                     4.40662   3.13493   0.87065 
 1                     6.35396  -3.24953  -0.75413 
 1                     4.4959   -4.72665   0.01137 
 1                     5.97122  -0.76888  -0.85032 
 1                     2.32274  -3.78104   0.63827 
 1                     0.47398   3.85956  -0.44327 
 1                    -1.41002  -0.88341   1.07339 
 1                    -2.37151   0.38041  -1.5057 
 1                    -1.54009  -2.149    -0.82641 
 
                          Input orientation:                          
 ---------------------------------------------------------------------
 Center     Atomic      Atomic             Coordinates (Angstroms)
 Number     Number       Type             X           Y           Z
 ---------------------------------------------------------------------
      1          6           0       -3.888561    2.352130   -0.347767
      2          6           0       -2.766859    1.559951    1.774225
      3          6           0        0.878281   -1.893875    1.614761
      4          6           0        3.749900    3.901879    0.455673
      5          6           0        5.396932   -2.821767   -0.470535
      6          6           0        4.352872   -3.650108   -0.033336
      7          6           0        5.189962   -1.452605   -0.534682
      8          6           0        3.124002   -3.117144    0.334154
      9          6           0        0.725012    2.821548   -0.261093
     10          6           0        3.953617   -0.892545   -0.176420
     11          6           0        2.907250   -1.725302    0.262327
     12          6           0        2.047095    2.415312   -0.292015
     13          6           0       -0.293360    1.885560   -0.068038
     14          6           0        2.396206    1.056387   -0.045149
     15          6           0       -0.024217    0.527658    0.153022
     16          6           0        1.345810    0.134847    0.251979
     17          6           0        3.785622    0.574136   -0.195530
     18          6           0       -1.183238   -0.466182    0.084092
     19          6           0       -2.444834    0.244614   -0.425971
     20          6           0       -2.695766    1.601077    0.242727
     21         53           0       -4.175725   -1.165719   -0.243408
     22          7           0        1.683562   -1.166790    0.634489
     23          8           0        4.759623    1.311632   -0.368870
     24          8           0       -0.806378   -1.509797   -0.806361
     25          8           0        2.958707    3.377024   -0.614726
     26          8           0       -1.551831    2.404097   -0.158432
     27          1           0       -3.838502    2.361588   -1.441084
     28          1           0       -4.832734    1.895973   -0.041132
     29          1           0       -3.867688    3.387303    0.006274
     30          1           0       -3.613238    0.953165    2.109153
     31          1           0       -1.851266    1.151644    2.211531
     32          1           0       -2.897278    2.577537    2.154265
     33          1           0        1.547994   -2.448094    2.276752
     34          1           0        0.330447   -1.176749    2.227916
     35          1           0        0.174437   -2.589262    1.147192
     36          1           0        4.355145    4.695441    0.012625
     37          1           0        3.103050    4.328625    1.234430
     38          1           0        4.406623    3.134927    0.870649
     39          1           0        6.353960   -3.249529   -0.754130
     40          1           0        4.495896   -4.726653    0.011365
     41          1           0        5.971222   -0.768884   -0.850321
     42          1           0        2.322738   -3.781043    0.638265
     43          1           0        0.473978    3.859561   -0.443267
     44          1           0       -1.410016   -0.883411    1.073394
     45          1           0       -2.371507    0.380408   -1.505697
     46          1           0       -1.540088   -2.149005   -0.826408
 ---------------------------------------------------------------------
                    Distance matrix (angstroms):
                    1          2          3          4          5
     1  C    0.000000
     2  C    2.527571   0.000000
     3  C    6.678537   5.024081   0.000000
     4  C    7.835389   7.049209   6.571183   0.000000
     5  C   10.630365   9.533409   5.062376   6.984124   0.000000
     6  C   10.200340   9.005696   4.227690   7.591786   1.402624
     7  C    9.845330   8.815756   4.837915   5.632502   1.386202
     8  C    8.919306   7.658411   2.860001   7.047922   2.429194
     9  C    4.638202   4.234065   5.077158   3.291021   7.329236
    10  C    8.488641   7.415157   3.697118   4.840201   2.427253
    11  C    7.948630   6.728613   2.444220   5.693207   2.817417
    12  C    5.936254   5.308026   4.854999   2.380854   6.219347
    13  C    3.636125   3.101314   4.299847   4.548381   7.395969
    14  C    6.424082   5.497357   3.709912   3.190632   4.921929
    15  C    4.302632   3.349032   2.969008   5.071580   6.402837
    16  C    5.716177   4.611095   2.488267   4.473441   5.067068
    17  C    7.878929   6.912798   4.221476   3.391049   3.768833
    18  C    3.930414   3.077275   2.937876   6.599536   7.011065
    19  C    2.555795   2.583539   4.447563   7.247594   8.420093
    20  C    1.528242   1.533699   5.183722   6.847309   9.249976
    21  I    3.531093   3.672196   5.433781   9.433175   9.717502
    22  N    6.663046   5.342318   1.462212   5.476599   4.212973
    23  O    8.710578   7.829588   5.410627   2.899792   4.183478
    24  O    4.962322   4.463884   2.974462   7.186003   6.349417
    25  O    6.928691   6.464592   6.089430   1.430809   6.662638
    26  O    2.344964   2.433935   5.246163   5.543359   8.700136
    27  H    1.094503   3.482708   7.049482   7.972078  10.634960
    28  H    1.092505   2.770608   7.051285   8.827915  11.273310
    29  H    1.094241   2.770684   7.280267   7.648163  11.163023
    30  H    2.840662   1.093949   5.340768   8.102142  10.103864
    31  H    3.484501   1.093737   4.133007   6.482275   8.690101
    32  H    2.700669   1.094039   5.877026   6.987422  10.238944
    33  H    7.712741   5.910576   1.092660   6.963252   4.743579
    34  H    6.073480   4.157964   1.091032   6.373850   5.971348
    35  H    6.569643   5.124486   1.094340   7.442919   5.472253
    36  H    8.577860   7.978563   7.620663   1.091949   7.604418
    37  H    7.435893   6.512508   6.619196   1.098631   7.700448
    38  H    8.420652   7.399719   6.188033   1.091653   6.185603
    39  H   11.681308  10.616639   6.118211   7.706321   1.085960
    40  H   10.978946   9.766098   4.866482   8.672110   2.161639
    41  H   10.354159   9.416251   5.768906   5.334409   2.165266
    42  H    8.784549   7.464625   2.569320   7.816484   3.405924
    43  H    4.616624   4.550659   6.123803   3.397286   8.299178
    44  H    4.316435   2.881355   2.559379   7.064369   7.243996
    45  H    2.744074   3.507921   5.046855   7.329349   8.466058
    46  H    5.099474   4.693039   3.445708   8.138851   6.978646
                    6          7          8          9         10
     6  C    0.000000
     7  C    2.404389   0.000000
     8  C    1.388964   2.791730   0.000000
     9  C    7.422639   6.187004   6.432537   0.000000
    10  C    2.789988   1.403769   2.428536   4.921945   0.000000
    11  C    2.425308   2.433179   1.410448   5.070501   1.407433
    12  C    6.494062   4.989718   5.670969   1.383433   3.819700
    13  C    7.227191   6.436453   6.071834   1.396576   5.076064
    14  C    5.097036   3.786787   4.253460   2.440351   2.498219
    15  C    6.053707   5.619790   4.819613   2.448421   4.236587
    16  C    4.842490   4.232770   3.707312   2.804816   2.835440
    17  C    4.265245   2.488950   3.787328   3.797696   1.476394
    18  C    6.387463   6.478703   5.063837   3.817033   5.161098
    19  C    7.844223   7.821923   6.549133   4.088483   6.503505
    20  C    8.794001   8.491999   7.492641   3.666757   7.113939
    21  I    8.885566   9.374606   7.578103   6.317898   8.134206
    22  N    3.706491   3.707222   2.443143   4.198538   2.426094
    23  O    4.989679   2.802444   4.773212   4.309240   2.354799
    24  O    5.638826   6.002764   4.396843   4.626340   4.841010
    25  O    7.187649   5.320735   6.565205   2.328734   4.405812
    26  O    8.457811   7.776084   7.251907   2.317071   6.417019
    27  H   10.257722   9.842906   9.035731   4.735990   8.538494
    28  H   10.730071  10.578800   9.411792   5.638582   9.219224
    29  H   10.821475  10.283889   9.555054   4.635133   8.917583
    30  H    9.446655   9.501259   8.068980   5.284821   8.117129
    31  H    8.160121   7.993916   6.819119   3.942037   6.601340
    32  H    9.804786   9.427403   8.485164   4.360560   8.025480
    33  H    3.827360   4.707344   2.589424   5.906529   3.771579
    34  H    5.235520   5.596689   3.892996   4.726227   4.357633
    35  H    4.469716   5.410747   3.104774   5.618119   4.348908
    36  H    8.345676   6.228558   7.915528   4.094418   5.605582
    37  H    8.174929   6.395903   7.500027   3.187936   5.474904
    38  H    6.845201   4.861484   6.404790   3.864364   4.185941
    39  H    2.164338   2.152205   3.410941   8.293740   3.413322
    40  H    1.086924   3.391060   2.139347   8.442105   3.876817
    41  H    3.404111   1.085113   3.876076   6.384443   2.130766
    42  H    2.142344   3.875358   1.084098   6.852429   3.415684
    43  H    8.462210   7.104081   7.503427   1.083363   5.895897
    44  H    6.487707   6.816861   5.108166   4.479500   5.507329
    45  H    7.976853   7.840830   6.768939   4.134808   6.587456
    46  H    6.132638   6.772271   4.902849   5.491508   5.672916
                   11         12         13         14         15
    11  C    0.000000
    12  C    4.265190   0.000000
    13  C    4.836463   2.410090   0.000000
    14  C    2.844908   1.424605   2.814572   0.000000
    15  C    3.698821   2.837539   1.401857   2.485412   0.000000
    16  C    2.428653   2.447090   2.419563   1.428584   1.428659
    17  C    2.503714   2.534110   4.286512   1.478397   3.826032
    18  C    4.283602   4.345056   2.519071   3.891958   1.528332
    19  C    5.744487   4.990721   2.729407   4.923380   2.504942
    20  C    6.516055   4.841865   2.439070   5.129107   2.880529
    21  I    7.123022   7.179807   4.941034   6.940269   4.501078
    22  N    1.395655   3.717798   3.703864   2.431519   2.453462
    23  O    3.612847   2.929475   5.094363   2.399101   4.875665
    24  O    3.870345   4.879891   3.512372   4.173882   2.383991
    25  O    5.177413   1.363843   3.619292   2.454828   4.195969
    26  O    6.091993   3.601422   1.364112   4.173266   2.439597
    27  H    8.069043   5.996957   3.831434   6.521025   4.522526
    28  H    8.550618   6.903963   4.539466   7.277534   5.003181
    29  H    8.491412   6.001533   3.877702   6.683725   4.792846
    30  H    7.287092   6.320036   4.078126   6.384754   4.109571
    31  H    5.892342   4.802272   2.856946   4.810686   2.822220
    32  H    7.469029   5.518825   3.492542   5.930623   4.057272
    33  H    2.535333   5.522715   5.260150   4.288598   3.979595
    34  H    3.286999   4.711670   3.877922   3.797510   2.708500
    35  H    2.999613   5.533889   4.660435   4.432684   3.277656
    36  H    6.586706   3.258664   5.432360   4.133218   6.047226
    37  H    6.134603   2.665679   4.381848   3.583921   5.039503
    38  H    5.122499   2.727087   4.952968   3.033281   5.190875
    39  H    3.903366   7.131133   8.427735   5.891297   7.468012
    40  H    3.405126   7.556211   8.164842   6.152678   6.932480
    41  H    3.397153   5.084248   6.848578   4.093978   6.215546
    42  H    2.170036   6.271859   6.281180   4.886019   4.930371
    43  H    6.132648   2.140895   2.150880   3.422169   3.421306
    44  H    4.472739   4.969661   3.196402   4.416025   2.181431
    45  H    5.951907   5.013771   2.941265   5.032021   2.877986
    46  H    4.598226   5.829790   4.290358   5.136080   3.228262
                   16         17         18         19         20
    16  C    0.000000
    17  C    2.519111   0.000000
    18  C    2.604900   5.084291   0.000000
    19  C    3.852356   6.243418   1.535259   0.000000
    20  C    4.299332   6.576858   2.566411   1.533009   0.000000
    21  I    5.694228   8.149382   3.090564   2.240168   3.175180
    22  N    1.398088   2.852790   3.002054   4.490021   5.195486
    23  O    3.663932   1.233947   6.219598   7.283268   7.486031
    24  O    2.908066   5.079602   1.422695   2.430472   3.787863
    25  O    3.723483   2.952236   5.693355   6.248670   5.988512
    26  O    3.703276   5.642565   2.903994   2.352105   1.454083
    27  H    5.890834   7.929291   4.168078   2.730264   2.172428
    28  H    6.431321   8.720502   4.349055   2.928678   2.175815
    29  H    6.149748   8.156457   4.696986   3.476758   2.149399
    30  H    5.358255   7.758760   3.467033   2.879942   2.178323
    31  H    3.885230   6.156457   2.754926   2.851569   2.188917
    32  H    5.252544   7.361814   4.060514   3.507827   2.155936
    33  H    3.288186   4.500337   4.024346   5.522505   6.208264
    34  H    2.579840   4.569127   2.718847   4.094579   4.562374
    35  H    3.097465   4.985042   2.735129   4.167286   5.158979
    36  H    5.469223   4.165674   7.571073   8.138915   7.703466
    37  H    4.651976   4.075154   6.533431   7.086261   6.484540
    38  H    4.330336   2.842539   6.695760   7.548351   7.293210
    39  H    6.127628   4.639915   8.078304   9.472882  10.315990
    40  H    5.797855   5.352164   7.099962   8.548596   9.581946
    41  H    4.840065   2.647509   7.221569   8.487476   9.051417
    42  H    4.054356   4.669350   4.856674   6.329949   7.369467
    43  H    3.888053   4.671443   4.662245   4.646246   3.952039
    44  H    3.050598   5.543398   1.097373   2.142752   2.918191
    45  H    4.119244   6.297960   2.157806   1.090699   2.156887
    46  H    3.835011   6.014706   1.946342   2.590044   4.067156
                   21         22         23         24         25
    21  I    0.000000
    22  N    5.924690   0.000000
    23  O    9.273265   4.075715   0.000000
    24  O    3.433337   2.897154   6.255576   0.000000
    25  O    8.466080   4.881883   2.751288   6.172002   0.000000
    26  O    4.431211   4.883413   6.408761   4.036592   4.636782
    27  H    3.740326   6.873910   8.728104   4.958253   6.922140
    28  H    3.137919   7.231811   9.615726   5.328826   7.951671
    29  H    4.570256   7.207690   8.881421   5.832117   6.854591
    30  H    3.215681   5.892787   8.739216   4.737601   7.515655
    31  H    4.098781   4.511896   7.098445   4.157250   6.006320
    32  H    4.625498   6.108502   8.160690   5.462918   6.526795
    33  H    6.384094   2.087378   5.607978   3.991122   6.654529
    34  H    5.139373   2.090461   5.705518   3.257319   5.977057
    35  H    4.783738   2.136293   6.208007   2.437952   6.815650
    36  H   10.353477   6.472235   3.429184   8.112770   2.020354
    37  H    9.238636   5.707404   3.796979   7.316804   2.084648
    38  H    9.664025   5.096627   2.232806   7.180613   2.088399
    39  H   10.746040   5.298932   4.847115   7.368842   7.447038
    40  H    9.377749   4.579316   6.055990   6.255473   8.271912
    41  H   10.172824   4.554889   2.455263   6.818119   5.130234
    42  H    7.060261   2.691260   5.734812   4.127574   7.294681
    43  H    6.849315   5.280990   4.986405   5.531831   2.536951
    44  H    3.076168   3.137382   6.705429   2.071284   6.331413
    45  H    2.690555   4.839194   7.280973   2.551779   6.179378
    46  H    2.872860   3.672994   7.202202   0.973303   7.128882
                   26         27         28         29         30
    26  O    0.000000
    27  H    2.622188   0.000000
    28  H    3.322089   1.779090   0.000000
    29  H    2.521312   1.774201   1.776971   0.000000
    30  H    3.390655   3.826040   2.645710   3.226743   0.000000
    31  H    2.697225   4.330666   3.810206   3.731928   1.776069
    32  H    2.681208   3.722777   3.005044   2.492244   1.775730
    33  H    6.251623   8.122172   8.059603   8.278680   6.183443
    34  H    4.696817   6.584947   6.422510   6.587154   4.483669
    35  H    5.442269   6.878500   6.826508   7.304779   5.274527
    36  H    6.338129   8.642684   9.605052   8.326239   9.049596
    37  H    5.226068   7.694982   8.397709   7.140423   7.567522
    38  H    6.090673   8.597921   9.366540   8.323164   8.403103
    39  H    9.737550  11.655163  12.333964  12.210972  11.189551
    40  H    9.351547  11.036981  11.440510  11.652718  10.120232
    41  H    8.194074  10.314046  11.157137  10.715027  10.177712
    42  H    7.341864   8.945193   9.159196   9.492417   7.733825
    43  H    2.510659   4.673012   5.672617   4.390351   5.627372
    44  H    3.513576   4.769713   4.547762   5.041616   3.049589
    45  H    2.565601   2.466034   3.240297   3.683209   3.864853
    46  H    4.601855   5.099606   5.274469   6.063150   4.747518
                   31         32         33         34         35
    31  H    0.000000
    32  H    1.769348   0.000000
    33  H    4.951498   6.710619   0.000000
    34  H    3.190855   4.951595   1.761001   0.000000
    35  H    4.385279   6.094706   1.783954   1.785356   0.000000
    36  H    7.477514   7.853011   8.002278   7.455758   8.475403
    37  H    5.966002   6.317938   7.030544   6.243676   7.512759
    38  H    6.700190   7.436755   6.427986   6.086701   7.124199
    39  H    9.771960  11.313658   5.738105   7.033614   6.499037
    40  H    8.926453  10.611420   4.360497   5.904734   4.953135
    41  H    8.617116   9.943659   5.671268   6.438963   6.395823
    42  H    6.650479   8.365307   2.249805   3.643976   2.508893
    43  H    4.448317   4.444786   6.952591   5.702652   6.648805
    44  H    2.373079   3.918978   3.556139   2.109071   2.329349
    45  H    3.831872   4.301062   6.137575   4.864685   4.726372
    46  H    4.496686   5.750354   4.388087   3.711210   2.651135
                   36         37         38         39         40
    36  H    0.000000
    37  H    1.787485   0.000000
    38  H    1.781589   1.804593   0.000000
    39  H    8.228349   8.482406   6.869738   0.000000
    40  H    9.423145   9.243050   7.908905   2.494049   0.000000
    41  H    5.763265   6.209444   4.544166   2.511840   4.310803
    42  H    8.739158   8.168905   7.226840   4.297909   2.451489
    43  H    3.996247   3.153840   4.209176   9.230925   9.492396
    44  H    8.092336   6.896305   7.072583   8.319716   7.125883
    45  H    8.134658   7.284743   7.692688   9.480246   8.691650
    46  H    9.072166   8.231979   8.134083   7.970720   6.616588
                   41         42         43         44         45
    41  H    0.000000
    42  H    4.959882   0.000000
    43  H    7.197770   7.935140   0.000000
    44  H    7.628661   4.745425   5.324047   0.000000
    45  H    8.446983   6.629493   4.618446   3.028764   0.000000
    46  H    7.637086   4.441873   6.348710   2.286459   2.747839
                   46
    46  H    0.000000
 Stoichiometry    C20H20INO4
 Framework group  C1[X(C20H20INO4)]
 Deg. of freedom   132
 Full point group                 C1      NOp   1
 Largest Abelian subgroup         C1      NOp   1
 Largest concise Abelian subgroup C1      NOp   1
                         Standard orientation:                         
 ---------------------------------------------------------------------
 Center     Atomic      Atomic             Coordinates (Angstroms)
 Number     Number       Type             X           Y           Z
 ---------------------------------------------------------------------
      1          6           0       -3.888561    2.352130   -0.347767
      2          6           0       -2.766859    1.559951    1.774225
      3          6           0        0.878281   -1.893875    1.614761
      4          6           0        3.749900    3.901879    0.455673
      5          6           0        5.396932   -2.821767   -0.470535
      6          6           0        4.352872   -3.650108   -0.033336
      7          6           0        5.189962   -1.452605   -0.534682
      8          6           0        3.124002   -3.117144    0.334154
      9          6           0        0.725012    2.821548   -0.261093
     10          6           0        3.953617   -0.892545   -0.176420
     11          6           0        2.907250   -1.725302    0.262327
     12          6           0        2.047095    2.415312   -0.292015
     13          6           0       -0.293360    1.885560   -0.068038
     14          6           0        2.396206    1.056387   -0.045149
     15          6           0       -0.024217    0.527658    0.153022
     16          6           0        1.345810    0.134847    0.251979
     17          6           0        3.785622    0.574136   -0.195530
     18          6           0       -1.183238   -0.466182    0.084092
     19          6           0       -2.444834    0.244614   -0.425971
     20          6           0       -2.695766    1.601077    0.242727
     21         53           0       -4.175725   -1.165719   -0.243408
     22          7           0        1.683562   -1.166790    0.634489
     23          8           0        4.759623    1.311632   -0.368870
     24          8           0       -0.806378   -1.509797   -0.806361
     25          8           0        2.958707    3.377024   -0.614726
     26          8           0       -1.551831    2.404097   -0.158432
     27          1           0       -3.838502    2.361588   -1.441084
     28          1           0       -4.832734    1.895973   -0.041132
     29          1           0       -3.867688    3.387303    0.006274
     30          1           0       -3.613238    0.953165    2.109153
     31          1           0       -1.851266    1.151644    2.211531
     32          1           0       -2.897278    2.577537    2.154265
     33          1           0        1.547994   -2.448094    2.276752
     34          1           0        0.330447   -1.176749    2.227916
     35          1           0        0.174437   -2.589262    1.147192
     36          1           0        4.355145    4.695441    0.012625
     37          1           0        3.103050    4.328625    1.234430
     38          1           0        4.406623    3.134927    0.870649
     39          1           0        6.353960   -3.249529   -0.754130
     40          1           0        4.495896   -4.726653    0.011365
     41          1           0        5.971222   -0.768884   -0.850321
     42          1           0        2.322738   -3.781043    0.638265
     43          1           0        0.473978    3.859561   -0.443267
     44          1           0       -1.410016   -0.883411    1.073394
     45          1           0       -2.371507    0.380408   -1.505697
     46          1           0       -1.540088   -2.149005   -0.826408
 ---------------------------------------------------------------------
 Rotational constants (GHZ):      0.2704252      0.0928668      0.0722031
 General basis read from cards:  (5D, 7F)
 ======================================================================================================
                                       Pseudopotential Parameters
 ======================================================================================================
  Center     Atomic      Valence      Angular      Power
  Number     Number     Electrons     Momentum     of R      Exponent        Coefficient   SO-Coeffient
 ======================================================================================================
    1          6
                                   No pseudopotential on this center.
    2          6
                                   No pseudopotential on this center.
    3          6
                                   No pseudopotential on this center.
    4          6
                                   No pseudopotential on this center.
    5          6
                                   No pseudopotential on this center.
    6          6
                                   No pseudopotential on this center.
    7          6
                                   No pseudopotential on this center.
    8          6
                                   No pseudopotential on this center.
    9          6
                                   No pseudopotential on this center.
   10          6
                                   No pseudopotential on this center.
   11          6
                                   No pseudopotential on this center.
   12          6
                                   No pseudopotential on this center.
   13          6
                                   No pseudopotential on this center.
   14          6
                                   No pseudopotential on this center.
   15          6
                                   No pseudopotential on this center.
   16          6
                                   No pseudopotential on this center.
   17          6
                                   No pseudopotential on this center.
   18          6
                                   No pseudopotential on this center.
   19          6
                                   No pseudopotential on this center.
   20          6
                                   No pseudopotential on this center.
   21         53            7
                                      F and up 
                                                     0        1.0715702       -0.07476210    0.00000000
                                                     1       44.1936028      -30.08112240    0.00000000
                                                     2       12.9367609      -75.37227210    0.00000000
                                                     2        3.1956412      -22.05637580    0.00000000
                                                     2        0.8589806       -1.69795850    0.00000000
                                      S - F
                                                     0      127.9202670        2.93800360    0.00000000
                                                     1       78.6211465       41.24712670    0.00000000
                                                     2       36.5146237      287.86800950    0.00000000
                                                     2        9.9065681      114.37585060    0.00000000
                                                     2        1.9420086       37.65477140    0.00000000
                                      P - F
                                                     0       13.0035304        2.22226300    0.00000000
                                                     1       76.0331404       39.40908310    0.00000000
                                                     2       24.1961684      177.40750020    0.00000000
                                                     2        6.4053433       77.98894620    0.00000000
                                                     2        1.5851786       25.75476410    0.00000000
                                      D - F
                                                     0       40.4278108        7.05243600    0.00000000
                                                     1       28.9084375       33.30416350    0.00000000
                                                     2       15.6268936      186.94538750    0.00000000
                                                     2        4.1442856       71.96883610    0.00000000
                                                     2        0.9377235        9.36306570    0.00000000
   22          7
                                   No pseudopotential on this center.
   23          8
                                   No pseudopotential on this center.
   24          8
                                   No pseudopotential on this center.
   25          8
                                   No pseudopotential on this center.
   26          8
                                   No pseudopotential on this center.
   27          1
                                   No pseudopotential on this center.
   28          1
                                   No pseudopotential on this center.
   29          1
                                   No pseudopotential on this center.
   30          1
                                   No pseudopotential on this center.
   31          1
                                   No pseudopotential on this center.
   32          1
                                   No pseudopotential on this center.
   33          1
                                   No pseudopotential on this center.
   34          1
                                   No pseudopotential on this center.
   35          1
                                   No pseudopotential on this center.
   36          1
                                   No pseudopotential on this center.
   37          1
                                   No pseudopotential on this center.
   38          1
                                   No pseudopotential on this center.
   39          1
                                   No pseudopotential on this center.
   40          1
                                   No pseudopotential on this center.
   41          1
                                   No pseudopotential on this center.
   42          1
                                   No pseudopotential on this center.
   43          1
                                   No pseudopotential on this center.
   44          1
                                   No pseudopotential on this center.
   45          1
                                   No pseudopotential on this center.
   46          1
                                   No pseudopotential on this center.
 ======================================================================================================
 There are   558 symmetry adapted basis functions of A   symmetry.
 Integral buffers will be    131072 words long.
 Raffenetti 2 integral format.
 Two-electron integral symmetry is turned on.
   558 basis functions,   952 primitive gaussians,   583 cartesian basis functions
    93 alpha electrons       93 beta electrons
       nuclear repulsion energy      2376.0612020750 Hartrees.
 NAtoms=   46 NActive=   46 NUniq=   46 SFac= 1.00D+00 NAtFMM=   60 NAOKFM=F Big=F
 ------------------------------------------------------------------------------
 Polarizable Continuum Model (PCM)
 =================================
 Model                : PCM.
 Atomic radii         : UFF (Universal Force Field).
 Polarization charges : Total charges.
 Charge compensation  : None.
 Solution method      : Matrix inversion.
 Cavity type          : Scaled VdW (van der Waals Surface) (Alpha=1.100).
 Cavity algorithm     : GePol (No added spheres)
                        Default sphere list used, NSphG=   46.
                        Lebedev-Laikov grids with approx.  5.0 points / Ang**2.
                        Smoothing algorithm: Karplus/York (Gamma=1.0000).
                        Polarization charges: spherical gaussians, with
                                              point-specific exponents (IZeta= 3).
                        Self-potential: point-specific (ISelfS= 7).
                        Self-field    : sphere-specific E.n sum rule (ISelfD= 2).
 Solvent              : Chloroform, Eps=   4.711300 Eps(inf)=   2.090627
 ------------------------------------------------------------------------------
 One-electron integrals computed using PRISM.
   1 Symmetry operations used in ECPInt.
 ECPInt:  NShTT=   17955 NPrTT=   83133 LenC2=   15385 LenP2D=   44760.
 LDataN:  DoStor=T MaxTD1= 5 Len=  102
 NBasis=   558 RedAO= T  NBF=   558
 NBsUse=   552 1.00D-06 NBFU=   552
 Defaulting to unpruned grid for atomic number  53.
 Harris functional with IExCor=  908 diagonalized for initial guess.
 ExpMin= 4.38D-02 ExpMax= 5.48D+03 ExpMxC= 8.25D+02 IAcc=2 IRadAn=         4 AccDes= 0.00D+00
 HarFok:  IExCor=  908 AccDes= 0.00D+00 IRadAn=         4 IDoV= 1
 ScaDFX=  1.000000  1.000000  1.000000  1.000000
 Defaulting to unpruned grid for atomic number  53.
 Defaulting to unpruned grid for atomic number  53.
 Defaulting to unpruned grid for atomic number  53.
 Defaulting to unpruned grid for atomic number  53.
 FoFCou: FMM=F IPFlag=           0 FMFlag=      100000 FMFlg1=           0
         NFxFlg=           0 DoJE=T BraDBF=F KetDBF=T FulRan=T
         Omega=  0.000000  0.000000  1.000000  0.000000  0.000000 ICntrl=     500 IOpCl=  0
         NMat0=    1 NMatS0=    1 NMatT0=    0 NMatD0=    1 NMtDS0=    0 NMtDT0=    0
         I1Cent=           4 NGrid=           0.
 Petite list used in FoFCou.
 Initial guess orbital symmetries:
       Occupied  (A) (A) (A) (A) (A) (A) (A) (A) (A) (A) (A) (A)
                 (A) (A) (A) (A) (A) (A) (A) (A) (A) (A) (A) (A)
                 (A) (A) (A) (A) (A) (A) (A) (A) (A) (A) (A) (A)
                 (A) (A) (A) (A) (A) (A) (A) (A) (A) (A) (A) (A)
                 (A) (A) (A) (A) (A) (A) (A) (A) (A) (A) (A) (A)
                 (A) (A) (A) (A) (A) (A) (A) (A) (A) (A) (A) (A)
                 (A) (A) (A) (A) (A) (A) (A) (A) (A) (A) (A) (A)
                 (A) (A) (A) (A) (A) (A) (A) (A) (A)
       Virtual   (A) (A) (A) (A) (A) (A) (A) (A) (A) (A) (A) (A)
                 (A) (A) (A) (A) (A) (A) (A) (A) (A) (A) (A) (A)
                 (A) (A) (A) (A) (A) (A) (A) (A) (A) (A) (A) (A)
                 (A) (A) (A) (A) (A) (A) (A) (A) (A) (A) (A) (A)
                 (A) (A) (A) (A) (A) (A) (A) (A) (A) (A) (A) (A)
                 (A) (A) (A) (A) (A) (A) (A) (A) (A) (A) (A) (A)
                 (A) (A) (A) (A) (A) (A) (A) (A) (A) (A) (A) (A)
                 (A) (A) (A) (A) (A) (A) (A) (A) (A) (A) (A) (A)
                 (A) (A) (A) (A) (A) (A) (A) (A) (A) (A) (A) (A)
                 (A) (A) (A) (A) (A) (A) (A) (A) (A) (A) (A) (A)
                 (A) (A) (A) (A) (A) (A) (A) (A) (A) (A) (A) (A)
                 (A) (A) (A) (A) (A) (A) (A) (A) (A) (A) (A) (A)
                 (A) (A) (A) (A) (A) (A) (A) (A) (A) (A) (A) (A)
                 (A) (A) (A) (A) (A) (A) (A) (A) (A) (A) (A) (A)
                 (A) (A) (A) (A) (A) (A) (A) (A) (A) (A) (A) (A)
                 (A) (A) (A) (A) (A) (A) (A) (A) (A) (A) (A) (A)
                 (A) (A) (A) (A) (A) (A) (A) (A) (A) (A) (A) (A)
                 (A) (A) (A) (A) (A) (A) (A) (A) (A) (A) (A) (A)
                 (A) (A) (A) (A) (A) (A) (A) (A) (A) (A) (A) (A)
                 (A) (A) (A) (A) (A) (A) (A) (A) (A) (A) (A) (A)
                 (A) (A) (A) (A) (A) (A) (A) (A) (A) (A) (A) (A)
                 (A) (A) (A) (A) (A) (A) (A) (A) (A) (A) (A) (A)
                 (A) (A) (A) (A) (A) (A) (A) (A) (A) (A) (A) (A)
                 (A) (A) (A) (A) (A) (A) (A) (A) (A) (A) (A) (A)
                 (A) (A) (A) (A) (A) (A) (A) (A) (A) (A) (A) (A)
                 (A) (A) (A) (A) (A) (A) (A) (A) (A) (A) (A) (A)
                 (A) (A) (A) (A) (A) (A) (A) (A) (A) (A) (A) (A)
                 (A) (A) (A) (A) (A) (A) (A) (A) (A) (A) (A) (A)
                 (A) (A) (A) (A) (A) (A) (A) (A) (A) (A) (A) (A)
                 (A) (A) (A) (A) (A) (A) (A) (A) (A) (A) (A) (A)
                 (A) (A) (A) (A) (A) (A) (A) (A) (A) (A) (A) (A)
                 (A) (A) (A) (A) (A) (A) (A) (A) (A) (A) (A) (A)
                 (A) (A) (A) (A) (A) (A) (A) (A) (A) (A) (A) (A)
                 (A) (A) (A) (A) (A) (A) (A) (A) (A) (A) (A) (A)
                 (A) (A) (A) (A) (A) (A) (A) (A) (A) (A) (A) (A)
                 (A) (A) (A) (A) (A) (A) (A) (A) (A) (A) (A) (A)
                 (A) (A) (A) (A) (A) (A) (A) (A) (A) (A) (A) (A)
                 (A) (A) (A) (A) (A) (A) (A) (A) (A) (A) (A) (A)
                 (A) (A) (A)
 The electronic state of the initial guess is 1-A.
 Requested convergence on RMS density matrix=1.00D-08 within 128 cycles.
 Requested convergence on MAX density matrix=1.00D-06.
 Requested convergence on             energy=1.00D-06.
 No special actions if energy rises.
 Defaulting to unpruned grid for atomic number  53.
 Defaulting to unpruned grid for atomic number  53.
 Defaulting to unpruned grid for atomic number  53.
 Defaulting to unpruned grid for atomic number  53.
 Error on total polarization charges =  0.01753
 SCF Done:  E(RmPW1PW91) =  -1141.01360942     A.U. after   16 cycles
             Convg  =    0.4956D-08             -V/T =  2.0144
 Range of M.O.s used for correlation:     1   552
 NBasis=   558 NAE=    93 NBE=    93 NFC=     0 NFV=     0
 NROrb=    552 NOA=    93 NOB=    93 NVA=   459 NVB=   459

 **** Warning!!: The largest alpha MO coefficient is  0.14091148D+03

 NEqPCM:  Using equilibrium solvation (IEInf=0, Eps=   4.7113, EpsInf=   2.0906)
          Differentiating once with respect to magnetic field using GIAOs.
          Electric field/nuclear overlap derivatives assumed to be zero.
 Defaulting to unpruned grid for atomic number  53.
 FoFCou: FMM=F IPFlag=           0 FMFlag=    10101102 FMFlg1=           0
         NFxFlg=    40000000 DoJE=F BraDBF=F KetDBF=T FulRan=T
         Omega=  0.000000  0.000000  1.000000  0.000000  0.000000 ICntrl=    6100 IOpCl=  0
         NMat0=    1 NMatS0=    1 NMatT0=    0 NMatD0=    1 NMtDS0=    0 NMtDT0=    0
         I1Cent=           7 NGrid=        3235.
 Symmetry not used in FoFCou.
   1 Symmetry operations used in ECPInt.
 ECPInt:  NShTT=   17955 NPrTT=   83133 LenC2=   17956 LenP2D=   83133.
 LDataN:  DoStor=T MaxTD1= 6 Len=  172
 Defaulting to unpruned grid for atomic number  53.
 Defaulting to unpruned grid for atomic number  53.
 Defaulting to unpruned grid for atomic number  53.
 Defaulting to unpruned grid for atomic number  53.
          There are     3 degrees of freedom in the 1st order CPHF.  IDoFFX=0.
      3 vectors produced by pass  0 Test12= 1.42D-12 3.33D-08 XBig12= 2.46D+03 6.91D+00.
 AX will form     3 AO Fock derivatives at one time.
      3 vectors produced by pass  1 Test12= 1.42D-12 3.33D-08 XBig12= 7.32D+00 5.63D-01.
      3 vectors produced by pass  2 Test12= 1.42D-12 3.33D-08 XBig12= 3.50D-02 5.34D-02.
      3 vectors produced by pass  3 Test12= 1.42D-12 3.33D-08 XBig12= 2.21D-04 4.74D-03.
      3 vectors produced by pass  4 Test12= 1.42D-12 3.33D-08 XBig12= 9.76D-07 3.01D-04.
      3 vectors produced by pass  5 Test12= 1.42D-12 3.33D-08 XBig12= 5.40D-09 2.43D-05.
      3 vectors produced by pass  6 Test12= 1.42D-12 3.33D-08 XBig12= 3.10D-11 1.14D-06.
      2 vectors produced by pass  7 Test12= 1.42D-12 3.33D-08 XBig12= 1.19D-13 5.80D-08.
 Inverted reduced A of dimension    23 with in-core refinement.
 Calculating GIAO nuclear magnetic shielding tensors.
 SCF GIAO Magnetic shielding tensor (ppm):
      1  C    Isotropic =   166.2125   Anisotropy =    44.1425
   XX=   172.8779   YX=   -14.4914   ZX=    13.5638
   XY=   -20.0205   YY=   166.3988   ZY=   -10.8032
   XZ=    14.6745   YZ=    -9.9699   ZZ=   159.3609
   Eigenvalues:   150.4111   152.5857   195.6409
      2  C    Isotropic =   177.1419   Anisotropy =    28.3491
   XX=   164.3639   YX=     4.7815   ZX=     0.6222
   XY=     1.7163   YY=   171.1602   ZY=     0.6227
   XZ=     1.1404   YZ=     2.5603   ZZ=   195.9015
   Eigenvalues:   163.0591   172.3253   196.0413
      3  C    Isotropic =   155.8531   Anisotropy =    52.8364
   XX=   152.1621   YX=    10.5719   ZX=   -22.7931
   XY=     9.0423   YY=   148.4423   ZY=   -19.8138
   XZ=   -15.5301   YZ=   -19.1040   ZZ=   166.9549
   Eigenvalues:   135.5336   140.9483   191.0774
      4  C    Isotropic =   133.8643   Anisotropy =    85.9085
   XX=   134.3665   YX=    21.5313   ZX=    32.2578
   XY=    20.9483   YY=   122.4809   ZY=    27.1389
   XZ=    34.2270   YZ=    28.8477   ZZ=   144.7457
   Eigenvalues:   103.2677   107.1887   191.1367
      5  C    Isotropic =    78.0575   Anisotropy =   161.6020
   XX=    12.8799   YX=    29.0040   ZX=    56.1559
   XY=    28.0631   YY=    56.3447   ZY=     3.1719
   XZ=    60.6644   YZ=     1.1176   ZZ=   164.9480
   Eigenvalues:   -16.5554    64.9358   185.7922
      6  C    Isotropic =    66.6369   Anisotropy =   176.6926
   XX=    64.1487   YX=    12.5897   ZX=    40.7749
   XY=    13.1366   YY=   -32.1643   ZY=    15.4959
   XZ=    42.2253   YZ=    19.0209   ZZ=   167.9264
   Eigenvalues:   -34.5990    50.0777   184.4320
      7  C    Isotropic =    71.2201   Anisotropy =   181.2654
   XX=    13.0705   YX=   -22.7480   ZX=    61.2402
   XY=   -28.9630   YY=    30.5976   ZY=    24.1509
   XZ=    61.4050   YZ=    19.4566   ZZ=   169.9922
   Eigenvalues:   -25.8860    47.4826   192.0637
      8  C    Isotropic =    83.3378   Anisotropy =   146.4180
   XX=    47.4980   YX=   -32.4127   ZX=    47.6856
   XY=   -27.0395   YY=    35.5813   ZY=    23.1525
   XZ=    32.0005   YZ=    28.9013   ZZ=   166.9340
   Eigenvalues:    -1.2339    70.2974   180.9498
      9  C    Isotropic =    91.3137   Anisotropy =    99.9833
   XX=    88.7021   YX=     1.7656   ZX=     2.7801
   XY=     9.9447   YY=    29.6560   ZY=    20.9201
   XZ=     0.5232   YZ=    13.4401   ZZ=   155.5829
   Eigenvalues:    26.8497    89.1221   157.9692
     10  C    Isotropic =    72.4953   Anisotropy =   152.6632
   XX=    45.8583   YX=     2.1978   ZX=    41.3934
   XY=    -8.0124   YY=    11.1423   ZY=    13.3545
   XZ=    41.3327   YZ=     5.8781   ZZ=   160.4853
   Eigenvalues:     9.3146    33.9005   174.2708
     11  C    Isotropic =    54.0025   Anisotropy =   149.1820
   XX=     8.8211   YX=     9.1322   ZX=    53.4209
   XY=    22.7803   YY=    12.3976   ZY=     6.5486
   XZ=    31.4968   YZ=    -5.2478   ZZ=   140.7888
   Eigenvalues:   -12.7968    21.3472   153.4572
     12  C    Isotropic =    34.8684   Anisotropy =   124.7660
   XX=     9.9971   YX=   -30.0881   ZX=    12.6217
   XY=   -20.3239   YY=   -16.6728   ZY=    26.0100
   XZ=     7.9217   YZ=    33.3999   ZZ=   111.2809
   Eigenvalues:   -38.2060    24.7655   118.0458
     13  C    Isotropic =    41.1050   Anisotropy =   126.2404
   XX=   -32.1602   YX=    19.6555   ZX=     2.5121
   XY=    18.6947   YY=    32.9377   ZY=    14.3377
   XZ=   -13.5472   YZ=    17.2109   ZZ=   122.5375
   Eigenvalues:   -37.9564    36.0061   125.2653
     14  C    Isotropic =    79.5617   Anisotropy =   133.4192
   XX=    31.6285   YX=    -5.8466   ZX=    16.1266
   XY=   -14.2796   YY=    46.9046   ZY=    25.8596
   XZ=     3.6372   YZ=    36.3776   ZZ=   160.1521
   Eigenvalues:    22.3148    47.8625   168.5079
     15  C    Isotropic =    89.5658   Anisotropy =   105.8920
   XX=    45.4607   YX=   -12.4710   ZX=    -8.5360
   XY=   -10.2465   YY=    65.9441   ZY=    12.4542
   XZ=   -12.1296   YZ=    12.3554   ZZ=   157.2927
   Eigenvalues:    40.2309    68.3061   160.1604
     16  C    Isotropic =    48.4434   Anisotropy =   141.1165
   XX=    11.7026   YX=    14.7703   ZX=    -2.7988
   XY=     9.1716   YY=    -1.8030   ZY=    46.3344
   XZ=     4.7020   YZ=    17.1964   ZZ=   135.4305
   Eigenvalues:   -13.9565    16.7655   142.5211
     17  C    Isotropic =    24.3682   Anisotropy =   137.2222
   XX=   -12.8145   YX=    30.2014   ZX=    18.8316
   XY=    25.4228   YY=   -26.5346   ZY=    -0.9689
   XZ=    21.1909   YZ=     4.7561   ZZ=   112.4537
   Eigenvalues:   -49.0718     6.3268   115.8497
     18  C    Isotropic =   124.5083   Anisotropy =    25.0886
   XX=   123.8382   YX=     1.0203   ZX=     3.5625
   XY=   -16.5524   YY=   129.3392   ZY=    13.1350
   XZ=    -1.8972   YZ=    14.1183   ZZ=   120.3476
   Eigenvalues:   108.5674   123.7234   141.2341
     19  C    Isotropic =   115.6877   Anisotropy =    47.1659
   XX=   133.6777   YX=    -5.4375   ZX=    -7.1908
   XY=    -7.2086   YY=   144.0370   ZY=    -2.0079
   XZ=    -8.0504   YZ=   -11.1673   ZZ=    69.3485
   Eigenvalues:    67.7597   132.1718   147.1316
     20  C    Isotropic =   114.4901   Anisotropy =    60.5467
   XX=   130.5759   YX=    29.2750   ZX=    -6.1540
   XY=    28.3929   YY=   117.1342   ZY=    -9.7088
   XZ=    -3.7468   YZ=    -6.9535   ZZ=    95.7602
   Eigenvalues:    90.8993    97.7164   154.8546
     21  I    Isotropic =    47.2738   Anisotropy =    24.9603
   XX=    52.9267   YX=    10.9562   ZX=     0.0827
   XY=    13.7502   YY=    49.8474   ZY=    -2.4561
   XZ=     0.7988   YZ=    -2.7385   ZZ=    39.0474
   Eigenvalues:    36.7186    41.1889    63.9140
     22  N    Isotropic =   158.7181   Anisotropy =    84.9443
   XX=   129.3825   YX=   -31.1924   ZX=    52.1168
   XY=   -37.4811   YY=   146.0935   ZY=    36.1896
   XZ=    -7.8394   YZ=    26.1307   ZZ=   200.6785
   Eigenvalues:    90.0893   170.7175   215.3477
     23  O    Isotropic =  -113.4467   Anisotropy =   757.2550
   XX=  -429.3317   YX=  -166.0649   ZX=   133.4882
   XY=  -157.4542   YY=  -290.6652   ZY=    45.0161
   XZ=    60.7867   YZ=    18.0679   ZZ=   379.6568
   Eigenvalues:  -546.4809  -185.2492   391.3900
     24  O    Isotropic =   280.9536   Anisotropy =    59.6082
   XX=   276.4019   YX=    29.0869   ZX=     6.3001
   XY=    26.5120   YY=   286.4136   ZY=    17.6121
   XZ=     1.8404   YZ=    29.3476   ZZ=   280.0454
   Eigenvalues:   247.5943   274.5742   320.6924
     25  O    Isotropic =   258.5246   Anisotropy =   122.7366
   XX=   202.3037   YX=     6.2802   ZX=   -46.6454
   XY=    30.6860   YY=   241.2032   ZY=    -2.1593
   XZ=   -16.3752   YZ=    -9.9288   ZZ=   332.0669
   Eigenvalues:   189.6075   245.6172   340.3490
     26  O    Isotropic =   173.8514   Anisotropy =    77.2574
   XX=   151.9743   YX=    -4.1376   ZX=    -2.0688
   XY=   -39.6544   YY=   150.5523   ZY=    21.2160
   XZ=     5.5657   YZ=    21.2630   ZZ=   219.0275
   Eigenvalues:   126.2997   169.8981   225.3563
     27  H    Isotropic =    29.7505   Anisotropy =     9.9589
   XX=    26.9442   YX=    -1.6949   ZX=     2.7003
   XY=    -3.9938   YY=    29.3720   ZY=    -4.2626
   XZ=     2.2057   YZ=    -2.5930   ZZ=    32.9352
   Eigenvalues:    25.0606    27.8010    36.3897
     28  H    Isotropic =    29.3312   Anisotropy =     7.4040
   XX=    33.4388   YX=     0.2355   ZX=    -0.5182
   XY=    -3.9556   YY=    30.0812   ZY=    -0.7039
   XZ=    -0.2398   YZ=    -0.3909   ZZ=    24.4735
   Eigenvalues:    24.3841    29.3422    34.2672
     29  H    Isotropic =    29.7798   Anisotropy =    11.1681
   XX=    27.6684   YX=    -3.4078   ZX=    -0.0199
   XY=    -4.3220   YY=    35.6563   ZY=     0.7136
   XZ=     0.7304   YZ=     0.0871   ZZ=    26.0148
   Eigenvalues:    25.5754    26.5389    37.2253
     30  H    Isotropic =    29.6270   Anisotropy =     5.9753
   XX=    29.5825   YX=     3.8582   ZX=    -3.3889
   XY=     0.9381   YY=    29.4770   ZY=     0.8561
   XZ=    -3.4052   YZ=     0.0265   ZZ=    29.8214
   Eigenvalues:    25.2655    30.0050    33.6105
     31  H    Isotropic =    30.0984   Anisotropy =     4.8539
   XX=    30.6921   YX=    -1.9168   ZX=     0.9726
   XY=    -4.3164   YY=    28.2026   ZY=     0.0378
   XZ=     1.0336   YZ=    -0.6786   ZZ=    31.4005
   Eigenvalues:    26.0743    30.8866    33.3344
     32  H    Isotropic =    30.2280   Anisotropy =    10.6559
   XX=    26.4499   YX=    -0.9299   ZX=    -0.8667
   XY=    -3.2047   YY=    33.5358   ZY=     3.3991
   XZ=    -1.5170   YZ=     5.5571   ZZ=    30.6982
   Eigenvalues:    25.8907    27.4613    37.3319
     33  H    Isotropic =    28.4245   Anisotropy =     8.5314
   XX=    27.2868   YX=    -1.1002   ZX=    -0.3311
   XY=    -2.3995   YY=    28.3458   ZY=    -3.6943
   XZ=    -0.8616   YZ=    -6.3066   ZZ=    29.6409
   Eigenvalues:    23.2246    27.9368    34.1121
     34  H    Isotropic =    28.8062   Anisotropy =     5.7128
   XX=    28.5679   YX=    -2.4345   ZX=    -2.0268
   XY=    -1.7523   YY=    27.5058   ZY=    -0.8474
   XZ=    -4.0308   YZ=    -2.0658   ZZ=    30.3448
   Eigenvalues:    24.2835    29.5204    32.6147
     35  H    Isotropic =    27.7797   Anisotropy =     7.5511
   XX=    30.0544   YX=     2.6855   ZX=     1.5980
   XY=     2.0250   YY=    30.7533   ZY=    -1.6553
   XZ=     1.5237   YZ=    -2.3818   ZZ=    22.5313
   Eigenvalues:    21.5434    28.9819    32.8138
     36  H    Isotropic =    27.3739   Anisotropy =    10.0902
   XX=    28.8907   YX=     4.9457   ZX=    -0.1740
   XY=     4.0735   YY=    29.9278   ZY=    -0.5132
   XZ=     2.1452   YZ=     2.1900   ZZ=    23.3034
   Eigenvalues:    23.1333    24.8878    34.1008
     37  H    Isotropic =    28.1826   Anisotropy =     8.6749
   XX=    26.7730   YX=     1.7415   ZX=     1.9799
   XY=    -0.0053   YY=    28.9587   ZY=     3.5666
   XZ=     0.1488   YZ=     6.0706   ZZ=    28.8162
   Eigenvalues:    24.0595    26.5225    33.9659
     38  H    Isotropic =    26.5780   Anisotropy =     5.8299
   XX=    27.9871   YX=    -1.0149   ZX=     2.1978
   XY=     0.3780   YY=    27.7126   ZY=     1.5088
   XZ=     4.9926   YZ=     3.0426   ZZ=    24.0343
   Eigenvalues:    21.2072    28.0622    30.4646
     39  H    Isotropic =    24.0119   Anisotropy =     4.5585
   XX=    24.9839   YX=     0.2696   ZX=    -1.5856
   XY=    -0.0352   YY=    26.9261   ZY=    -0.6940
   XZ=    -1.4889   YZ=    -0.7851   ZZ=    20.1257
   Eigenvalues:    19.6172    25.3676    27.0509
     40  H    Isotropic =    23.6875   Anisotropy =     5.5537
   XX=    26.5946   YX=    -0.4609   ZX=    -2.2111
   XY=    -0.6598   YY=    24.1952   ZY=    -0.1955
   XZ=    -2.2222   YZ=     0.3173   ZZ=    20.2728
   Eigenvalues:    19.5703    24.1022    27.3900
     41  H    Isotropic =    22.7208   Anisotropy =     7.7300
   XX=    24.2897   YX=    -2.1228   ZX=    -1.6591
   XY=    -2.4934   YY=    26.1686   ZY=     0.1396
   XZ=    -2.2455   YZ=     0.1730   ZZ=    17.7043
   Eigenvalues:    17.1437    23.1446    27.8741
     42  H    Isotropic =    24.1530   Anisotropy =    10.0254
   XX=    25.6235   YX=    -3.7543   ZX=    -2.0643
   XY=    -3.5295   YY=    27.9885   ZY=     0.5957
   XZ=    -1.5959   YZ=     0.5608   ZZ=    18.8471
   Eigenvalues:    18.3704    23.2521    30.8366
     43  H    Isotropic =    24.9946   Anisotropy =     7.7296
   XX=    29.5772   YX=     1.5281   ZX=    -0.8349
   XY=     1.5413   YY=    25.4231   ZY=    -1.2868
   XZ=    -0.1253   YZ=    -0.9540   ZZ=    19.9836
   Eigenvalues:    19.7587    25.0775    30.1477
     44  H    Isotropic =    27.5051   Anisotropy =     4.6532
   XX=    28.7905   YX=    -0.6016   ZX=    -0.6895
   XY=    -2.5781   YY=    28.9398   ZY=    -1.3031
   XZ=     0.6207   YZ=    -1.2924   ZZ=    24.7849
   Eigenvalues:    24.3569    27.5511    30.6072
     45  H    Isotropic =    26.5961   Anisotropy =     6.9631
   XX=    25.4246   YX=     3.4591   ZX=    -2.1158
   XY=    -1.4737   YY=    29.9955   ZY=    -3.3693
   XZ=     0.6097   YZ=    -1.7653   ZZ=    24.3682
   Eigenvalues:    23.3117    25.2384    31.2381
     46  H    Isotropic =    30.2166   Anisotropy =    23.5395
   XX=    36.0312   YX=     8.6130   ZX=    -0.7027
   XY=     7.6968   YY=    38.3429   ZY=     5.4305
   XZ=     2.4109   YZ=     3.0931   ZZ=    16.2756
   Eigenvalues:    15.4570    29.2832    45.9096
 End of Minotr Frequency-dependent properties file   721 does not exist.
 End of Minotr Frequency-dependent properties file   722 does not exist.

 **********************************************************************

            Population analysis using the SCF density.

 **********************************************************************

 Orbital symmetries:
       Occupied  (A) (A) (A) (A) (A) (A) (A) (A) (A) (A) (A) (A)
                 (A) (A) (A) (A) (A) (A) (A) (A) (A) (A) (A) (A)
                 (A) (A) (A) (A) (A) (A) (A) (A) (A) (A) (A) (A)
                 (A) (A) (A) (A) (A) (A) (A) (A) (A) (A) (A) (A)
                 (A) (A) (A) (A) (A) (A) (A) (A) (A) (A) (A) (A)
                 (A) (A) (A) (A) (A) (A) (A) (A) (A) (A) (A) (A)
                 (A) (A) (A) (A) (A) (A) (A) (A) (A) (A) (A) (A)
                 (A) (A) (A) (A) (A) (A) (A) (A) (A)
       Virtual   (A) (A) (A) (A) (A) (A) (A) (A) (A) (A) (A) (A)
                 (A) (A) (A) (A) (A) (A) (A) (A) (A) (A) (A) (A)
                 (A) (A) (A) (A) (A) (A) (A) (A) (A) (A) (A) (A)
                 (A) (A) (A) (A) (A) (A) (A) (A) (A) (A) (A) (A)
                 (A) (A) (A) (A) (A) (A) (A) (A) (A) (A) (A) (A)
                 (A) (A) (A) (A) (A) (A) (A) (A) (A) (A) (A) (A)
                 (A) (A) (A) (A) (A) (A) (A) (A) (A) (A) (A) (A)
                 (A) (A) (A) (A) (A) (A) (A) (A) (A) (A) (A) (A)
                 (A) (A) (A) (A) (A) (A) (A) (A) (A) (A) (A) (A)
                 (A) (A) (A) (A) (A) (A) (A) (A) (A) (A) (A) (A)
                 (A) (A) (A) (A) (A) (A) (A) (A) (A) (A) (A) (A)
                 (A) (A) (A) (A) (A) (A) (A) (A) (A) (A) (A) (A)
                 (A) (A) (A) (A) (A) (A) (A) (A) (A) (A) (A) (A)
                 (A) (A) (A) (A) (A) (A) (A) (A) (A) (A) (A) (A)
                 (A) (A) (A) (A) (A) (A) (A) (A) (A) (A) (A) (A)
                 (A) (A) (A) (A) (A) (A) (A) (A) (A) (A) (A) (A)
                 (A) (A) (A) (A) (A) (A) (A) (A) (A) (A) (A) (A)
                 (A) (A) (A) (A) (A) (A) (A) (A) (A) (A) (A) (A)
                 (A) (A) (A) (A) (A) (A) (A) (A) (A) (A) (A) (A)
                 (A) (A) (A) (A) (A) (A) (A) (A) (A) (A) (A) (A)
                 (A) (A) (A) (A) (A) (A) (A) (A) (A) (A) (A) (A)
                 (A) (A) (A) (A) (A) (A) (A) (A) (A) (A) (A) (A)
                 (A) (A) (A) (A) (A) (A) (A) (A) (A) (A) (A) (A)
                 (A) (A) (A) (A) (A) (A) (A) (A) (A) (A) (A) (A)
                 (A) (A) (A) (A) (A) (A) (A) (A) (A) (A) (A) (A)
                 (A) (A) (A) (A) (A) (A) (A) (A) (A) (A) (A) (A)
                 (A) (A) (A) (A) (A) (A) (A) (A) (A) (A) (A) (A)
                 (A) (A) (A) (A) (A) (A) (A) (A) (A) (A) (A) (A)
                 (A) (A) (A) (A) (A) (A) (A) (A) (A) (A) (A) (A)
                 (A) (A) (A) (A) (A) (A) (A) (A) (A) (A) (A) (A)
                 (A) (A) (A) (A) (A) (A) (A) (A) (A) (A) (A) (A)
                 (A) (A) (A) (A) (A) (A) (A) (A) (A) (A) (A) (A)
                 (A) (A) (A) (A) (A) (A) (A) (A) (A) (A) (A) (A)
                 (A) (A) (A) (A) (A) (A) (A) (A) (A) (A) (A) (A)
                 (A) (A) (A) (A) (A) (A) (A) (A) (A) (A) (A) (A)
                 (A) (A) (A) (A) (A) (A) (A) (A) (A) (A) (A) (A)
                 (A) (A) (A) (A) (A) (A) (A) (A) (A) (A) (A) (A)
                 (A) (A) (A) (A) (A) (A) (A) (A) (A) (A) (A) (A)
                 (A) (A) (A)
 The electronic state is 1-A.
 Alpha  occ. eigenvalues --  -19.29410 -19.26448 -19.26393 -19.21590 -14.47376
 Alpha  occ. eigenvalues --  -10.34420 -10.33791 -10.33635 -10.33499 -10.32913
 Alpha  occ. eigenvalues --  -10.32822 -10.32356 -10.31211 -10.28661 -10.28392
 Alpha  occ. eigenvalues --  -10.27915 -10.26943 -10.26672 -10.26258 -10.26214
 Alpha  occ. eigenvalues --  -10.26059 -10.25577 -10.25260 -10.25046 -10.24757
 Alpha  occ. eigenvalues --   -1.12214  -1.09361  -1.07993  -1.05762  -1.01878
 Alpha  occ. eigenvalues --   -0.90140  -0.88692  -0.86869  -0.82986  -0.80645
 Alpha  occ. eigenvalues --   -0.79539  -0.77826  -0.76555  -0.73864  -0.73179
 Alpha  occ. eigenvalues --   -0.72734  -0.69515  -0.68242  -0.67161  -0.66405
 Alpha  occ. eigenvalues --   -0.63712  -0.61016  -0.59671  -0.57345  -0.56980
 Alpha  occ. eigenvalues --   -0.55901  -0.54457  -0.53858  -0.51745  -0.50937
 Alpha  occ. eigenvalues --   -0.50717  -0.49359  -0.48922  -0.48056  -0.47806
 Alpha  occ. eigenvalues --   -0.46938  -0.46645  -0.46554  -0.45612  -0.45287
 Alpha  occ. eigenvalues --   -0.44521  -0.43369  -0.43241  -0.42336  -0.41957
 Alpha  occ. eigenvalues --   -0.41425  -0.41204  -0.40835  -0.40038  -0.39862
 Alpha  occ. eigenvalues --   -0.38718  -0.38354  -0.37874  -0.37135  -0.36630
 Alpha  occ. eigenvalues --   -0.36551  -0.35417  -0.34523  -0.31976  -0.31323
 Alpha  occ. eigenvalues --   -0.29675  -0.29014  -0.28605  -0.27684  -0.27298
 Alpha  occ. eigenvalues --   -0.26260  -0.25195  -0.22567
 Alpha virt. eigenvalues --   -0.06627  -0.05745  -0.02846  -0.01127  -0.00265
 Alpha virt. eigenvalues --    0.00482   0.01412   0.01875   0.02078   0.02658
 Alpha virt. eigenvalues --    0.03277   0.03430   0.03841   0.04172   0.04568
 Alpha virt. eigenvalues --    0.04893   0.05262   0.05380   0.05492   0.06270
 Alpha virt. eigenvalues --    0.06715   0.06843   0.07016   0.07417   0.07826
 Alpha virt. eigenvalues --    0.07988   0.08490   0.08718   0.09151   0.09638
 Alpha virt. eigenvalues --    0.10048   0.10501   0.10760   0.11101   0.11419
 Alpha virt. eigenvalues --    0.11938   0.12340   0.12461   0.12655   0.13139
 Alpha virt. eigenvalues --    0.13277   0.13942   0.14195   0.14574   0.14854
 Alpha virt. eigenvalues --    0.15228   0.15347   0.15791   0.16162   0.16576
 Alpha virt. eigenvalues --    0.16662   0.16932   0.17400   0.17525   0.17657
 Alpha virt. eigenvalues --    0.17968   0.18229   0.18630   0.18905   0.19057
 Alpha virt. eigenvalues --    0.19509   0.19601   0.20023   0.20203   0.20559
 Alpha virt. eigenvalues --    0.20712   0.21032   0.21395   0.21465   0.22038
 Alpha virt. eigenvalues --    0.22161   0.22461   0.22810   0.23216   0.23420
 Alpha virt. eigenvalues --    0.23512   0.23751   0.23993   0.24487   0.24641
 Alpha virt. eigenvalues --    0.24886   0.25380   0.25697   0.25854   0.26051
 Alpha virt. eigenvalues --    0.26288   0.26461   0.26603   0.27395   0.27694
 Alpha virt. eigenvalues --    0.27901   0.28282   0.28698   0.28887   0.29020
 Alpha virt. eigenvalues --    0.29516   0.29903   0.30309   0.30597   0.30899
 Alpha virt. eigenvalues --    0.31211   0.31489   0.31539   0.32148   0.32419
 Alpha virt. eigenvalues --    0.32483   0.32982   0.33253   0.33559   0.33910
 Alpha virt. eigenvalues --    0.34422   0.34752   0.34945   0.35251   0.35453
 Alpha virt. eigenvalues --    0.36015   0.36058   0.36154   0.37223   0.37396
 Alpha virt. eigenvalues --    0.37631   0.38549   0.39305   0.39551   0.39973
 Alpha virt. eigenvalues --    0.40421   0.40843   0.41258   0.41500   0.41641
 Alpha virt. eigenvalues --    0.42460   0.43035   0.43469   0.44573   0.44870
 Alpha virt. eigenvalues --    0.46031   0.46534   0.47028   0.47240   0.47841
 Alpha virt. eigenvalues --    0.48359   0.48792   0.50452   0.51639   0.52275
 Alpha virt. eigenvalues --    0.54334   0.55519   0.57272   0.60354   0.61396
 Alpha virt. eigenvalues --    0.62887   0.64192   0.64631   0.66462   0.66699
 Alpha virt. eigenvalues --    0.69183   0.70011   0.70339   0.70973   0.71456
 Alpha virt. eigenvalues --    0.71782   0.72179   0.72338   0.73121   0.73496
 Alpha virt. eigenvalues --    0.73529   0.74383   0.74813   0.75527   0.75658
 Alpha virt. eigenvalues --    0.76514   0.76723   0.77011   0.77513   0.78030
 Alpha virt. eigenvalues --    0.79229   0.80074   0.80774   0.82100   0.83106
 Alpha virt. eigenvalues --    0.83543   0.83944   0.84890   0.85074   0.85914
 Alpha virt. eigenvalues --    0.86167   0.87934   0.88676   0.89490   0.90042
 Alpha virt. eigenvalues --    0.90984   0.91553   0.91894   0.92179   0.93726
 Alpha virt. eigenvalues --    0.94387   0.94858   0.95512   0.95852   0.97134
 Alpha virt. eigenvalues --    0.98548   0.99232   0.99780   1.02162   1.02863
 Alpha virt. eigenvalues --    1.03273   1.04189   1.04417   1.04669   1.05725
 Alpha virt. eigenvalues --    1.07002   1.07336   1.07832   1.08942   1.09159
 Alpha virt. eigenvalues --    1.11168   1.11564   1.11839   1.13272   1.14007
 Alpha virt. eigenvalues --    1.14797   1.15163   1.15875   1.16616   1.17314
 Alpha virt. eigenvalues --    1.17527   1.18518   1.19549   1.20034   1.20913
 Alpha virt. eigenvalues --    1.21125   1.22878   1.23275   1.23549   1.24328
 Alpha virt. eigenvalues --    1.24802   1.25636   1.26622   1.26727   1.27522
 Alpha virt. eigenvalues --    1.28340   1.29472   1.29698   1.30573   1.31116
 Alpha virt. eigenvalues --    1.32062   1.32860   1.33275   1.33894   1.34439
 Alpha virt. eigenvalues --    1.35673   1.36372   1.36915   1.38661   1.39051
 Alpha virt. eigenvalues --    1.39499   1.40406   1.41236   1.42188   1.42290
 Alpha virt. eigenvalues --    1.44162   1.44714   1.45263   1.46058   1.46724
 Alpha virt. eigenvalues --    1.47564   1.50011   1.51434   1.51999   1.52644
 Alpha virt. eigenvalues --    1.54267   1.54897   1.55281   1.57181   1.57734
 Alpha virt. eigenvalues --    1.58620   1.61545   1.62891   1.63970   1.66667
 Alpha virt. eigenvalues --    1.67344   1.68950   1.70024   1.71355   1.72735
 Alpha virt. eigenvalues --    1.73713   1.74552   1.74834   1.76490   1.76723
 Alpha virt. eigenvalues --    1.77497   1.78296   1.79548   1.81382   1.81934
 Alpha virt. eigenvalues --    1.82951   1.85080   1.85393   1.86027   1.86252
 Alpha virt. eigenvalues --    1.87950   1.88521   1.88786   1.89565   1.90236
 Alpha virt. eigenvalues --    1.91232   1.91888   1.92365   1.93248   1.94664
 Alpha virt. eigenvalues --    1.95134   1.95316   1.95840   1.96702   1.97653
 Alpha virt. eigenvalues --    1.98587   1.98821   2.00313   2.00994   2.02272
 Alpha virt. eigenvalues --    2.02458   2.03220   2.04242   2.05005   2.05238
 Alpha virt. eigenvalues --    2.05915   2.06336   2.06809   2.07324   2.08475
 Alpha virt. eigenvalues --    2.09073   2.09658   2.11313   2.11723   2.12071
 Alpha virt. eigenvalues --    2.13027   2.13984   2.14471   2.15217   2.15575
 Alpha virt. eigenvalues --    2.16225   2.16508   2.17444   2.18483   2.19852
 Alpha virt. eigenvalues --    2.20834   2.21934   2.22906   2.23507   2.25345
 Alpha virt. eigenvalues --    2.26680   2.28245   2.28533   2.30539   2.30909
 Alpha virt. eigenvalues --    2.31121   2.32369   2.33166   2.34317   2.36764
 Alpha virt. eigenvalues --    2.37373   2.38345   2.38769   2.39518   2.40834
 Alpha virt. eigenvalues --    2.41984   2.42988   2.44068   2.45241   2.46241
 Alpha virt. eigenvalues --    2.48535   2.49354   2.50144   2.51631   2.52476
 Alpha virt. eigenvalues --    2.53319   2.54576   2.55688   2.56386   2.56987
 Alpha virt. eigenvalues --    2.57715   2.58779   2.59103   2.60504   2.62191
 Alpha virt. eigenvalues --    2.62573   2.63081   2.64175   2.64776   2.65544
 Alpha virt. eigenvalues --    2.66778   2.67796   2.68113   2.69721   2.70308
 Alpha virt. eigenvalues --    2.70526   2.71920   2.72347   2.72641   2.74169
 Alpha virt. eigenvalues --    2.74568   2.75292   2.76138   2.76878   2.77633
 Alpha virt. eigenvalues --    2.80065   2.80871   2.82647   2.83544   2.84535
 Alpha virt. eigenvalues --    2.86173   2.86270   2.87788   2.89617   2.90246
 Alpha virt. eigenvalues --    2.90805   2.91136   2.91695   2.92622   2.93857
 Alpha virt. eigenvalues --    2.95828   2.97618   2.99951   3.01778   3.05156
 Alpha virt. eigenvalues --    3.08250   3.10881   3.12439   3.13268   3.13722
 Alpha virt. eigenvalues --    3.17336   3.18590   3.22100   3.25442   3.29235
 Alpha virt. eigenvalues --    3.29910   3.30084   3.31054   3.31380   3.32008
 Alpha virt. eigenvalues --    3.32730   3.34761   3.38204   3.40969   3.46997
 Alpha virt. eigenvalues --    3.47712   3.48975   3.49302   3.50206   3.51370
 Alpha virt. eigenvalues --    3.51944   3.53279   3.53513   3.54008   3.54769
 Alpha virt. eigenvalues --    3.58568   3.66397   3.90675  12.90690
          Condensed to atoms (all electrons):
              1          2          3          4          5          6
     1  C    7.547710  -0.859931  -0.014420  -0.000717  -0.000168   0.000924
     2  C   -0.859931   6.630472   0.010100  -0.001784   0.000190  -0.001588
     3  C   -0.014420   0.010100   5.309820   0.001261   0.016702   0.003004
     4  C   -0.000717  -0.001784   0.001261   5.043521  -0.015703   0.000065
     5  C   -0.000168   0.000190   0.016702  -0.015703   7.763845   0.283850
     6  C    0.000924  -0.001588   0.003004   0.000065   0.283850   6.973435
     7  C    0.000807  -0.000602   0.034586  -0.025168  -1.546718   0.165471
     8  C    0.008342  -0.009631   0.032970   0.004053  -0.813022   0.197102
     9  C    0.129424  -0.034675   0.045996   0.044808   0.055736  -0.016689
    10  C   -0.010066   0.001893  -0.265558  -0.127074   1.908427  -2.316940
    11  C    0.003031  -0.010586   0.066852  -0.012944  -0.291049   0.731523
    12  C    0.078526  -0.100767   0.040164  -0.107088   0.252677  -0.118299
    13  C    0.070637  -0.022760  -0.080442   0.011841  -0.051455   0.034279
    14  C   -0.010736   0.029359  -0.277972   0.106452  -0.319324  -0.399049
    15  C   -0.003262  -0.013838  -0.054312   0.018339  -0.198044   0.186781
    16  C    0.035121  -0.147231  -0.174083   0.024050  -0.039311   0.005540
    17  C   -0.001493   0.003190  -0.022619  -0.054388  -1.392616   0.247496
    18  C   -1.682587   0.418189   0.485623   0.001844   0.010681  -0.005556
    19  C    1.245692   0.223931  -0.282620  -0.004520  -0.007812   0.031297
    20  C   -1.282059  -1.044524  -0.043082   0.002263  -0.000835   0.007885
    21  I   -0.033281  -0.026384   0.004325   0.000004   0.000006  -0.000214
    22  N   -0.001540   0.011663   0.174028   0.000049   0.036776   0.030932
    23  O   -0.000009  -0.000025   0.000327  -0.035802   0.049997  -0.011351
    24  O    0.021463  -0.041377  -0.008863   0.000051   0.000771  -0.000964
    25  O   -0.000768   0.000285  -0.000629   0.086059  -0.000196   0.000400
    26  O   -0.240718   0.047597   0.004113  -0.000604   0.000112  -0.000315
    27  H    0.502440  -0.004290   0.000000  -0.000002   0.000000   0.000000
    28  H    0.313145   0.003451   0.000012   0.000000   0.000000   0.000000
    29  H    0.480463  -0.010986  -0.000018   0.000001   0.000000   0.000000
    30  H    0.043915   0.404440  -0.000510   0.000002   0.000000   0.000001
    31  H   -0.031850   0.413988   0.003212   0.000009   0.000010  -0.000022
    32  H   -0.061633   0.472165  -0.000068   0.000026   0.000000  -0.000001
    33  H    0.000053  -0.000722   0.451020   0.000032   0.001387   0.011086
    34  H   -0.000922   0.004335   0.382217   0.000153  -0.000623  -0.009966
    35  H   -0.000045   0.000529   0.374734  -0.000031   0.001139   0.020230
    36  H    0.000000   0.000007  -0.000018   0.399391   0.000061   0.000009
    37  H   -0.000025   0.000017   0.000190   0.413077   0.000177   0.000002
    38  H   -0.000001  -0.000014  -0.000081   0.415620  -0.002651  -0.000137
    39  H    0.000000   0.000000   0.000165  -0.000003   0.287277   0.035741
    40  H    0.000000   0.000000  -0.000064  -0.000001   0.043739   0.243499
    41  H    0.000000   0.000000   0.000183   0.000507  -0.068064   0.003044
    42  H    0.000001   0.000022   0.006019   0.000007   0.003808   0.040274
    43  H    0.005599  -0.003940   0.000429   0.002904  -0.000020   0.000007
    44  H    0.017266   0.017650   0.000886  -0.000067  -0.000152   0.000403
    45  H    0.056793   0.013240  -0.002923  -0.000015  -0.000013   0.000036
    46  H   -0.006652   0.011295  -0.004192  -0.000001   0.000054   0.000790
              7          8          9         10         11         12
     1  C    0.000807   0.008342   0.129424  -0.010066   0.003031   0.078526
     2  C   -0.000602  -0.009631  -0.034675   0.001893  -0.010586  -0.100767
     3  C    0.034586   0.032970   0.045996  -0.265558   0.066852   0.040164
     4  C   -0.025168   0.004053   0.044808  -0.127074  -0.012944  -0.107088
     5  C   -1.546718  -0.813022   0.055736   1.908427  -0.291049   0.252677
     6  C    0.165471   0.197102  -0.016689  -2.316940   0.731523  -0.118299
     7  C   10.468681   1.609718   0.021311  -5.421385   1.572848   0.020653
     8  C    1.609718   9.804261  -0.296044  -2.401437  -2.072268  -0.494275
     9  C    0.021311  -0.296044  23.645891   0.068073  -0.069057  -0.496777
    10  C   -5.421385  -2.401437   0.068073  32.456884 -11.378493   1.109154
    11  C    1.572848  -2.072268  -0.069057 -11.378493  20.454360  -1.506937
    12  C    0.020653  -0.494275  -0.496777   1.109154  -1.506937  18.034667
    13  C   -0.086370   0.402924  -3.230535  -0.753993   0.130396  -6.709508
    14  C   -0.960161  -0.342541 -11.003153   0.727464  -3.674749  -3.837617
    15  C    0.266533   0.706459   0.128747  -2.826830   1.189564   1.150591
    16  C   -0.198031  -0.211244   0.388867  -2.611860   1.202980  -1.349143
    17  C   -0.036899  -0.210275  -2.885266  -2.364090   0.865787  -0.982210
    18  C   -0.008558  -0.281763  -0.183437  -0.388396  -0.179926   1.274684
    19  C    0.022480   0.170363   0.559039  -0.211430  -0.168576  -0.423827
    20  C   -0.000543   0.043616  -0.753400  -0.019611   0.040865  -0.015197
    21  I   -0.000042  -0.003217   0.011053   0.001625   0.006969   0.004713
    22  N   -0.005714  -0.135331  -0.015434  -0.142865   0.145896  -0.056738
    23  O    0.072182   0.022016   0.098481  -0.211398  -0.140126   0.091200
    24  O   -0.001511  -0.074808   0.041094  -0.008302   0.078476   0.047808
    25  O   -0.000803  -0.001540  -0.688769   0.052984  -0.006075   0.574451
    26  O    0.000896  -0.003652   0.106856   0.005277  -0.001372   0.080210
    27  H    0.000001   0.000001  -0.000665  -0.000009  -0.000006   0.000536
    28  H    0.000000   0.000002   0.000728  -0.000003   0.000009  -0.000162
    29  H    0.000000  -0.000001   0.004811   0.000005  -0.000003   0.002075
    30  H    0.000001   0.000052   0.002666  -0.000018  -0.000129   0.000573
    31  H   -0.000002  -0.000534  -0.010035   0.000912   0.001215  -0.005278
    32  H   -0.000001  -0.000017  -0.003653   0.000043  -0.000102  -0.001118
    33  H    0.007882   0.070788  -0.001120  -0.042313  -0.037150  -0.001601
    34  H   -0.004330  -0.077630   0.011035   0.056691   0.085278   0.014264
    35  H    0.002435   0.069398  -0.001737  -0.046700  -0.101153  -0.003584
    36  H    0.001023   0.000008  -0.038437   0.006944   0.000498   0.022623
    37  H    0.001629  -0.000162   0.151185   0.008935  -0.000056  -0.068190
    38  H   -0.011832   0.000956  -0.050669  -0.039837   0.000726  -0.054832
    39  H   -0.013288   0.010903  -0.000003   0.017812  -0.003278  -0.000086
    40  H   -0.006410   0.007992  -0.000001   0.001891   0.036835  -0.000015
    41  H    0.303722  -0.029749   0.000948  -0.116212   0.038087   0.007204
    42  H   -0.030835   0.206040   0.000356   0.034301   0.076665   0.000203
    43  H    0.000052   0.000118   0.220137  -0.002250   0.002522   0.061010
    44  H    0.000596   0.005228   0.014095  -0.007877   0.016222  -0.006697
    45  H    0.000049   0.000303   0.023279  -0.000780   0.001641  -0.001628
    46  H   -0.000320   0.005185  -0.008323   0.001113  -0.010806  -0.004538
             13         14         15         16         17         18
     1  C    0.070637  -0.010736  -0.003262   0.035121  -0.001493  -1.682587
     2  C   -0.022760   0.029359  -0.013838  -0.147231   0.003190   0.418189
     3  C   -0.080442  -0.277972  -0.054312  -0.174083  -0.022619   0.485623
     4  C    0.011841   0.106452   0.018339   0.024050  -0.054388   0.001844
     5  C   -0.051455  -0.319324  -0.198044  -0.039311  -1.392616   0.010681
     6  C    0.034279  -0.399049   0.186781   0.005540   0.247496  -0.005556
     7  C   -0.086370  -0.960161   0.266533  -0.198031  -0.036899  -0.008558
     8  C    0.402924  -0.342541   0.706459  -0.211244  -0.210275  -0.281763
     9  C   -3.230535 -11.003153   0.128747   0.388867  -2.885266  -0.183437
    10  C   -0.753993   0.727464  -2.826830  -2.611860  -2.364090  -0.388396
    11  C    0.130396  -3.674749   1.189564   1.202980   0.865787  -0.179926
    12  C   -6.709508  -3.837617   1.150591  -1.349143  -0.982210   1.274684
    13  C   16.944184   4.154565  -0.831670  -0.220507  -2.031062  -2.918184
    14  C    4.154565  24.808909  -1.766327   0.161583   0.740504  -2.657526
    15  C   -0.831670  -1.766327  11.671662  -0.479326   0.396357  -4.637411
    16  C   -0.220507   0.161583  -0.479326   9.642721   0.185079   0.095069
    17  C   -2.031062   0.740504   0.396357   0.185079  12.843610   0.526384
    18  C   -2.918184  -2.657526  -4.637411   0.095069   0.526384  26.794912
    19  C    1.368767   0.255063   0.874328  -0.489419  -0.156211 -11.227614
    20  C    0.084270   0.400148   0.458917   0.119754   0.042129   0.521626
    21  I   -0.022975   0.005042   0.027740   0.028171   0.000752   0.603794
    22  N    0.071986  -0.333084   0.052787   0.101102  -0.141447  -0.119180
    23  O    0.010678  -0.257538  -0.046188  -0.088797   0.469168  -0.008850
    24  O   -0.062469  -0.090720  -0.165686   0.092285   0.020044   0.127746
    25  O    0.068114   0.124393  -0.027457  -0.045633   0.036027  -0.001791
    26  O   -0.168158  -0.072928  -0.139972  -0.023020   0.006444   0.339486
    27  H    0.015526  -0.001676  -0.015303   0.000190  -0.000023   0.012756
    28  H   -0.004901   0.000355   0.012847  -0.000093  -0.000003  -0.007411
    29  H    0.002656  -0.000063  -0.002614   0.000459   0.000032  -0.013347
    30  H   -0.004574  -0.000967  -0.013635  -0.001855  -0.000069  -0.085920
    31  H   -0.005729   0.008141   0.013865   0.018195   0.001917   0.115620
    32  H    0.010684   0.002744   0.015128  -0.003084   0.000022   0.007501
    33  H    0.001014  -0.018076   0.019255  -0.019404  -0.002273  -0.010381
    34  H   -0.027408   0.033675  -0.039556  -0.016373  -0.004438   0.021596
    35  H    0.009129  -0.016259  -0.002706   0.045756   0.002114   0.022544
    36  H   -0.001429  -0.004439  -0.000843  -0.002644   0.040296  -0.000023
    37  H    0.002193  -0.104147  -0.005264  -0.003767   0.010700  -0.000249
    38  H    0.010069   0.152401   0.005006   0.016392  -0.032505   0.000140
    39  H    0.000000  -0.000688  -0.000008   0.000050  -0.009820  -0.000002
    40  H   -0.000012   0.001039  -0.000236   0.000328  -0.004736   0.000074
    41  H    0.000370   0.029685   0.001153   0.011563   0.137432  -0.000093
    42  H   -0.000879  -0.002018  -0.005270  -0.013507   0.013327   0.009453
    43  H   -0.029470   0.047403   0.017049   0.029063  -0.005452   0.003372
    44  H    0.027052  -0.003142   0.175705  -0.042712  -0.000854   0.093526
    45  H    0.031420  -0.001733   0.066406   0.007115  -0.000846  -0.452906
    46  H    0.006373   0.009032   0.044861  -0.000385  -0.001104  -0.022639
             19         20         21         22         23         24
     1  C    1.245692  -1.282059  -0.033281  -0.001540  -0.000009   0.021463
     2  C    0.223931  -1.044524  -0.026384   0.011663  -0.000025  -0.041377
     3  C   -0.282620  -0.043082   0.004325   0.174028   0.000327  -0.008863
     4  C   -0.004520   0.002263   0.000004   0.000049  -0.035802   0.000051
     5  C   -0.007812  -0.000835   0.000006   0.036776   0.049997   0.000771
     6  C    0.031297   0.007885  -0.000214   0.030932  -0.011351  -0.000964
     7  C    0.022480  -0.000543  -0.000042  -0.005714   0.072182  -0.001511
     8  C    0.170363   0.043616  -0.003217  -0.135331   0.022016  -0.074808
     9  C    0.559039  -0.753400   0.011053  -0.015434   0.098481   0.041094
    10  C   -0.211430  -0.019611   0.001625  -0.142865  -0.211398  -0.008302
    11  C   -0.168576   0.040865   0.006969   0.145896  -0.140126   0.078476
    12  C   -0.423827  -0.015197   0.004713  -0.056738   0.091200   0.047808
    13  C    1.368767   0.084270  -0.022975   0.071986   0.010678  -0.062469
    14  C    0.255063   0.400148   0.005042  -0.333084  -0.257538  -0.090720
    15  C    0.874328   0.458917   0.027740   0.052787  -0.046188  -0.165686
    16  C   -0.489419   0.119754   0.028171   0.101102  -0.088797   0.092285
    17  C   -0.156211   0.042129   0.000752  -0.141447   0.469168   0.020044
    18  C  -11.227614   0.521626   0.603794  -0.119180  -0.008850   0.127746
    19  C   17.663388  -3.697697  -0.387055  -0.049771   0.000523  -0.054040
    20  C   -3.697697  11.893295  -0.016294  -0.008715  -0.000659   0.087679
    21  I   -0.387055  -0.016294   6.806712   0.000461   0.000000  -0.059378
    22  N   -0.049771  -0.008715   0.000461   7.268657  -0.013480  -0.078933
    23  O    0.000523  -0.000659   0.000000  -0.013480   8.529655   0.000019
    24  O   -0.054040   0.087679  -0.059378  -0.078933   0.000019   8.471826
    25  O   -0.000901   0.003892   0.000000  -0.003176   0.013692   0.000076
    26  O   -0.075947  -0.140231   0.015172   0.002384   0.000008  -0.010414
    27  H    0.018453  -0.171381  -0.000155  -0.000002   0.000000  -0.000045
    28  H   -0.015265   0.049838  -0.001311   0.000003   0.000000  -0.000056
    29  H    0.030461  -0.131999   0.000506  -0.000005   0.000000   0.000035
    30  H    0.086419  -0.078516  -0.000486   0.000018   0.000000  -0.000091
    31  H   -0.148151  -0.015258   0.000584   0.000206   0.000000  -0.000024
    32  H    0.023046  -0.107954   0.000143   0.000011   0.000000  -0.000016
    33  H   -0.003897   0.001984   0.000000  -0.070276  -0.000008   0.002501
    34  H    0.015602  -0.009798   0.000048  -0.075844  -0.000017  -0.000089
    35  H    0.010813  -0.001004   0.000083  -0.017302   0.000000  -0.004819
    36  H    0.000003   0.000032   0.000000  -0.000032   0.000243   0.000000
    37  H    0.000012  -0.000247   0.000000   0.000120   0.003496   0.000000
    38  H    0.000018  -0.000011   0.000000   0.000206  -0.014691   0.000000
    39  H   -0.000001   0.000000   0.000000   0.000364   0.000097   0.000000
    40  H    0.000003   0.000000   0.000000  -0.000406   0.000011   0.000000
    41  H   -0.000004   0.000001   0.000000  -0.001470  -0.001389   0.000000
    42  H    0.001348  -0.000097   0.000000  -0.021401   0.000013  -0.000074
    43  H    0.001155  -0.006769   0.000000   0.000427   0.000082   0.000036
    44  H    0.004915  -0.025057  -0.007270   0.020203   0.000001  -0.054262
    45  H    0.792355  -0.214000  -0.042826  -0.000777   0.000000   0.005162
    46  H    0.046314  -0.023479   0.024900   0.000915   0.000000   0.174539
             25         26         27         28         29         30
     1  C   -0.000768  -0.240718   0.502440   0.313145   0.480463   0.043915
     2  C    0.000285   0.047597  -0.004290   0.003451  -0.010986   0.404440
     3  C   -0.000629   0.004113   0.000000   0.000012  -0.000018  -0.000510
     4  C    0.086059  -0.000604  -0.000002   0.000000   0.000001   0.000002
     5  C   -0.000196   0.000112   0.000000   0.000000   0.000000   0.000000
     6  C    0.000400  -0.000315   0.000000   0.000000   0.000000   0.000001
     7  C   -0.000803   0.000896   0.000001   0.000000   0.000000   0.000001
     8  C   -0.001540  -0.003652   0.000001   0.000002  -0.000001   0.000052
     9  C   -0.688769   0.106856  -0.000665   0.000728   0.004811   0.002666
    10  C    0.052984   0.005277  -0.000009  -0.000003   0.000005  -0.000018
    11  C   -0.006075  -0.001372  -0.000006   0.000009  -0.000003  -0.000129
    12  C    0.574451   0.080210   0.000536  -0.000162   0.002075   0.000573
    13  C    0.068114  -0.168158   0.015526  -0.004901   0.002656  -0.004574
    14  C    0.124393  -0.072928  -0.001676   0.000355  -0.000063  -0.000967
    15  C   -0.027457  -0.139972  -0.015303   0.012847  -0.002614  -0.013635
    16  C   -0.045633  -0.023020   0.000190  -0.000093   0.000459  -0.001855
    17  C    0.036027   0.006444  -0.000023  -0.000003   0.000032  -0.000069
    18  C   -0.001791   0.339486   0.012756  -0.007411  -0.013347  -0.085920
    19  C   -0.000901  -0.075947   0.018453  -0.015265   0.030461   0.086419
    20  C    0.003892  -0.140231  -0.171381   0.049838  -0.131999  -0.078516
    21  I    0.000000   0.015172  -0.000155  -0.001311   0.000506  -0.000486
    22  N   -0.003176   0.002384  -0.000002   0.000003  -0.000005   0.000018
    23  O    0.013692   0.000008   0.000000   0.000000   0.000000   0.000000
    24  O    0.000076  -0.010414  -0.000045  -0.000056   0.000035  -0.000091
    25  O    8.279120  -0.001959  -0.000001   0.000000  -0.000001   0.000000
    26  O   -0.001959   8.515861  -0.005296   0.010427  -0.007505   0.007941
    27  H   -0.000001  -0.005296   0.506075  -0.024629  -0.021390  -0.000001
    28  H    0.000000   0.010427  -0.024629   0.491887  -0.023276   0.000439
    29  H   -0.000001  -0.007505  -0.021390  -0.023276   0.498970   0.000221
    30  H    0.000000   0.007941  -0.000001   0.000439   0.000221   0.487170
    31  H   -0.000002  -0.007142  -0.000143   0.000076  -0.000005  -0.023771
    32  H    0.000003   0.000743   0.000062   0.000070   0.002681  -0.022517
    33  H   -0.000001  -0.000009   0.000000   0.000000   0.000000   0.000000
    34  H    0.000014   0.000238   0.000000   0.000000   0.000000   0.000000
    35  H   -0.000002   0.000004   0.000000   0.000000   0.000000   0.000000
    36  H   -0.059064  -0.000001   0.000000   0.000000   0.000000   0.000000
    37  H   -0.059110   0.000002   0.000000   0.000000   0.000000   0.000000
    38  H   -0.036306  -0.000001   0.000000   0.000000   0.000000   0.000000
    39  H    0.000000   0.000000   0.000000   0.000000   0.000000   0.000000
    40  H    0.000000   0.000000   0.000000   0.000000   0.000000   0.000000
    41  H   -0.000012   0.000000   0.000000   0.000000   0.000000   0.000000
    42  H    0.000000   0.000000   0.000000   0.000000   0.000000   0.000000
    43  H   -0.006570  -0.012886   0.000000   0.000000   0.000002   0.000000
    44  H   -0.000010   0.000462  -0.000001  -0.000002   0.000006  -0.000002
    45  H   -0.000003  -0.002730   0.003518   0.000060   0.000019  -0.000010
    46  H    0.000000   0.000922   0.000000   0.000001   0.000000   0.000006
             31         32         33         34         35         36
     1  C   -0.031850  -0.061633   0.000053  -0.000922  -0.000045   0.000000
     2  C    0.413988   0.472165  -0.000722   0.004335   0.000529   0.000007
     3  C    0.003212  -0.000068   0.451020   0.382217   0.374734  -0.000018
     4  C    0.000009   0.000026   0.000032   0.000153  -0.000031   0.399391
     5  C    0.000010   0.000000   0.001387  -0.000623   0.001139   0.000061
     6  C   -0.000022  -0.000001   0.011086  -0.009966   0.020230   0.000009
     7  C   -0.000002  -0.000001   0.007882  -0.004330   0.002435   0.001023
     8  C   -0.000534  -0.000017   0.070788  -0.077630   0.069398   0.000008
     9  C   -0.010035  -0.003653  -0.001120   0.011035  -0.001737  -0.038437
    10  C    0.000912   0.000043  -0.042313   0.056691  -0.046700   0.006944
    11  C    0.001215  -0.000102  -0.037150   0.085278  -0.101153   0.000498
    12  C   -0.005278  -0.001118  -0.001601   0.014264  -0.003584   0.022623
    13  C   -0.005729   0.010684   0.001014  -0.027408   0.009129  -0.001429
    14  C    0.008141   0.002744  -0.018076   0.033675  -0.016259  -0.004439
    15  C    0.013865   0.015128   0.019255  -0.039556  -0.002706  -0.000843
    16  C    0.018195  -0.003084  -0.019404  -0.016373   0.045756  -0.002644
    17  C    0.001917   0.000022  -0.002273  -0.004438   0.002114   0.040296
    18  C    0.115620   0.007501  -0.010381   0.021596   0.022544  -0.000023
    19  C   -0.148151   0.023046  -0.003897   0.015602   0.010813   0.000003
    20  C   -0.015258  -0.107954   0.001984  -0.009798  -0.001004   0.000032
    21  I    0.000584   0.000143   0.000000   0.000048   0.000083   0.000000
    22  N    0.000206   0.000011  -0.070276  -0.075844  -0.017302  -0.000032
    23  O    0.000000   0.000000  -0.000008  -0.000017   0.000000   0.000243
    24  O   -0.000024  -0.000016   0.002501  -0.000089  -0.004819   0.000000
    25  O   -0.000002   0.000003  -0.000001   0.000014  -0.000002  -0.059064
    26  O   -0.007142   0.000743  -0.000009   0.000238   0.000004  -0.000001
    27  H   -0.000143   0.000062   0.000000   0.000000   0.000000   0.000000
    28  H    0.000076   0.000070   0.000000   0.000000   0.000000   0.000000
    29  H   -0.000005   0.002681   0.000000   0.000000   0.000000   0.000000
    30  H   -0.023771  -0.022517   0.000000   0.000000   0.000000   0.000000
    31  H    0.514091  -0.022484   0.000000   0.000368   0.000001   0.000000
    32  H   -0.022484   0.501396   0.000000   0.000000   0.000000   0.000000
    33  H    0.000000   0.000000   0.507101  -0.016690  -0.031146   0.000000
    34  H    0.000368   0.000000  -0.016690   0.513111  -0.032904   0.000000
    35  H    0.000001   0.000000  -0.031146  -0.032904   0.509980   0.000000
    36  H    0.000000   0.000000   0.000000   0.000000   0.000000   0.525458
    37  H    0.000000   0.000000   0.000000   0.000000   0.000000  -0.027722
    38  H    0.000000   0.000000   0.000000   0.000000   0.000000  -0.027197
    39  H    0.000000   0.000000   0.000000   0.000000   0.000000   0.000000
    40  H    0.000000   0.000000   0.000001   0.000000   0.000002   0.000000
    41  H    0.000000   0.000000   0.000000   0.000000   0.000000   0.000000
    42  H    0.000000   0.000000  -0.001415   0.000242  -0.001576   0.000000
    43  H   -0.000001  -0.000004   0.000000   0.000000   0.000000  -0.000038
    44  H   -0.003849   0.000055   0.000032  -0.003519   0.000717   0.000000
    45  H   -0.000102  -0.000078   0.000000  -0.000006   0.000002   0.000000
    46  H    0.000002   0.000000  -0.000020  -0.000017  -0.000206   0.000000
             37         38         39         40         41         42
     1  C   -0.000025  -0.000001   0.000000   0.000000   0.000000   0.000001
     2  C    0.000017  -0.000014   0.000000   0.000000   0.000000   0.000022
     3  C    0.000190  -0.000081   0.000165  -0.000064   0.000183   0.006019
     4  C    0.413077   0.415620  -0.000003  -0.000001   0.000507   0.000007
     5  C    0.000177  -0.002651   0.287277   0.043739  -0.068064   0.003808
     6  C    0.000002  -0.000137   0.035741   0.243499   0.003044   0.040274
     7  C    0.001629  -0.011832  -0.013288  -0.006410   0.303722  -0.030835
     8  C   -0.000162   0.000956   0.010903   0.007992  -0.029749   0.206040
     9  C    0.151185  -0.050669  -0.000003  -0.000001   0.000948   0.000356
    10  C    0.008935  -0.039837   0.017812   0.001891  -0.116212   0.034301
    11  C   -0.000056   0.000726  -0.003278   0.036835   0.038087   0.076665
    12  C   -0.068190  -0.054832  -0.000086  -0.000015   0.007204   0.000203
    13  C    0.002193   0.010069   0.000000  -0.000012   0.000370  -0.000879
    14  C   -0.104147   0.152401  -0.000688   0.001039   0.029685  -0.002018
    15  C   -0.005264   0.005006  -0.000008  -0.000236   0.001153  -0.005270
    16  C   -0.003767   0.016392   0.000050   0.000328   0.011563  -0.013507
    17  C    0.010700  -0.032505  -0.009820  -0.004736   0.137432   0.013327
    18  C   -0.000249   0.000140  -0.000002   0.000074  -0.000093   0.009453
    19  C    0.000012   0.000018  -0.000001   0.000003  -0.000004   0.001348
    20  C   -0.000247  -0.000011   0.000000   0.000000   0.000001  -0.000097
    21  I    0.000000   0.000000   0.000000   0.000000   0.000000   0.000000
    22  N    0.000120   0.000206   0.000364  -0.000406  -0.001470  -0.021401
    23  O    0.003496  -0.014691   0.000097   0.000011  -0.001389   0.000013
    24  O    0.000000   0.000000   0.000000   0.000000   0.000000  -0.000074
    25  O   -0.059110  -0.036306   0.000000   0.000000  -0.000012   0.000000
    26  O    0.000002  -0.000001   0.000000   0.000000   0.000000   0.000000
    27  H    0.000000   0.000000   0.000000   0.000000   0.000000   0.000000
    28  H    0.000000   0.000000   0.000000   0.000000   0.000000   0.000000
    29  H    0.000000   0.000000   0.000000   0.000000   0.000000   0.000000
    30  H    0.000000   0.000000   0.000000   0.000000   0.000000   0.000000
    31  H    0.000000   0.000000   0.000000   0.000000   0.000000   0.000000
    32  H    0.000000   0.000000   0.000000   0.000000   0.000000   0.000000
    33  H    0.000000   0.000000   0.000000   0.000001   0.000000  -0.001415
    34  H    0.000000   0.000000   0.000000   0.000000   0.000000   0.000242
    35  H    0.000000   0.000000   0.000000   0.000002   0.000000  -0.001576
    36  H   -0.027722  -0.027197   0.000000   0.000000   0.000000   0.000000
    37  H    0.564921  -0.040601   0.000000   0.000000   0.000000   0.000000
    38  H   -0.040601   0.527684   0.000000   0.000000  -0.000005   0.000000
    39  H    0.000000   0.000000   0.503188  -0.003756  -0.003520  -0.000134
    40  H    0.000000   0.000000  -0.003756   0.503741  -0.000134  -0.004282
    41  H    0.000000  -0.000005  -0.003520  -0.000134   0.494179   0.000013
    42  H    0.000000   0.000000  -0.000134  -0.004282   0.000013   0.513318
    43  H    0.000241  -0.000001   0.000000   0.000000   0.000000   0.000000
    44  H    0.000000   0.000000   0.000000   0.000000   0.000000   0.000001
    45  H    0.000000   0.000000   0.000000   0.000000   0.000000   0.000000
    46  H    0.000000   0.000000   0.000000   0.000000   0.000000   0.000000
             43         44         45         46
     1  C    0.005599   0.017266   0.056793  -0.006652
     2  C   -0.003940   0.017650   0.013240   0.011295
     3  C    0.000429   0.000886  -0.002923  -0.004192
     4  C    0.002904  -0.000067  -0.000015  -0.000001
     5  C   -0.000020  -0.000152  -0.000013   0.000054
     6  C    0.000007   0.000403   0.000036   0.000790
     7  C    0.000052   0.000596   0.000049  -0.000320
     8  C    0.000118   0.005228   0.000303   0.005185
     9  C    0.220137   0.014095   0.023279  -0.008323
    10  C   -0.002250  -0.007877  -0.000780   0.001113
    11  C    0.002522   0.016222   0.001641  -0.010806
    12  C    0.061010  -0.006697  -0.001628  -0.004538
    13  C   -0.029470   0.027052   0.031420   0.006373
    14  C    0.047403  -0.003142  -0.001733   0.009032
    15  C    0.017049   0.175705   0.066406   0.044861
    16  C    0.029063  -0.042712   0.007115  -0.000385
    17  C   -0.005452  -0.000854  -0.000846  -0.001104
    18  C    0.003372   0.093526  -0.452906  -0.022639
    19  C    0.001155   0.004915   0.792355   0.046314
    20  C   -0.006769  -0.025057  -0.214000  -0.023479
    21  I    0.000000  -0.007270  -0.042826   0.024900
    22  N    0.000427   0.020203  -0.000777   0.000915
    23  O    0.000082   0.000001   0.000000   0.000000
    24  O    0.000036  -0.054262   0.005162   0.174539
    25  O   -0.006570  -0.000010  -0.000003   0.000000
    26  O   -0.012886   0.000462  -0.002730   0.000922
    27  H    0.000000  -0.000001   0.003518   0.000000
    28  H    0.000000  -0.000002   0.000060   0.000001
    29  H    0.000002   0.000006   0.000019   0.000000
    30  H    0.000000  -0.000002  -0.000010   0.000006
    31  H   -0.000001  -0.003849  -0.000102   0.000002
    32  H   -0.000004   0.000055  -0.000078   0.000000
    33  H    0.000000   0.000032   0.000000  -0.000020
    34  H    0.000000  -0.003519  -0.000006  -0.000017
    35  H    0.000000   0.000717   0.000002  -0.000206
    36  H   -0.000038   0.000000   0.000000   0.000000
    37  H    0.000241   0.000000   0.000000   0.000000
    38  H   -0.000001   0.000000   0.000000   0.000000
    39  H    0.000000   0.000000   0.000000   0.000000
    40  H    0.000000   0.000000   0.000000   0.000000
    41  H    0.000000   0.000000   0.000000   0.000000
    42  H    0.000000   0.000001   0.000000   0.000000
    43  H    0.487223   0.000001   0.000001   0.000000
    44  H    0.000001   0.579984   0.004105  -0.008321
    45  H    0.000001   0.004105   0.439909  -0.001892
    46  H    0.000000  -0.008321  -0.001892   0.397576
 Mulliken atomic charges:
              1
     1  C   -0.318469
     2  C   -0.382352
     3  C   -0.216465
     4  C   -0.190478
     5  C    0.030356
     6  C   -0.374014
     7  C   -0.214035
     8  C    0.080342
     9  C    0.013262
    10  C    1.255299
    11  C   -1.084403
    12  C   -0.521875
    13  C   -0.204635
    14  C    0.358678
    15  C   -0.224321
    16  C   -0.030004
    17  C   -0.248111
    18  C   -0.592869
    19  C   -0.041030
    20  C    0.050225
    21  I    0.058090
    22  N    0.373727
    23  O   -0.531563
    24  O   -0.454672
    25  O   -0.298730
    26  O   -0.230295
    27  H    0.185461
    28  H    0.193760
    29  H    0.187808
    30  H    0.199208
    31  H    0.181971
    32  H    0.186207
    33  H    0.182367
    34  H    0.181260
    35  H    0.191566
    36  H    0.165289
    37  H    0.152642
    38  H    0.182151
    39  H    0.178989
    40  H    0.180900
    41  H    0.192558
    42  H    0.176079
    43  H    0.188565
    44  H    0.184684
    45  H    0.277858
    46  H    0.369019
 Sum of Mulliken atomic charges =   0.00000
 Mulliken charges with hydrogens summed into heavy atoms:
              1
     1  C    0.248561
     2  C    0.185033
     3  C    0.338728
     4  C    0.309605
     5  C    0.209345
     6  C   -0.193115
     7  C   -0.021477
     8  C    0.256421
     9  C    0.201827
    10  C    1.255299
    11  C   -1.084403
    12  C   -0.521875
    13  C   -0.204635
    14  C    0.358678
    15  C   -0.224321
    16  C   -0.030004
    17  C   -0.248111
    18  C   -0.408185
    19  C    0.236828
    20  C    0.050225
    21  I    0.058090
    22  N    0.373727
    23  O   -0.531563
    24  O   -0.085653
    25  O   -0.298730
    26  O   -0.230295
 Sum of Mulliken charges with hydrogens summed into heavy atoms =   0.00000
 Electronic spatial extent (au):  <R**2>=          10161.9352
 Charge=              0.0000 electrons
 Dipole moment (field-independent basis, Debye):
    X=             -5.9266    Y=             -3.1488    Z=              4.3941  Tot=              8.0217
 Quadrupole moment (field-independent basis, Debye-Ang):
   XX=           -179.2081   YY=           -152.2343   ZZ=           -167.2180
   XY=            -16.2923   XZ=              4.6889   YZ=              2.7006
 Traceless Quadrupole moment (field-independent basis, Debye-Ang):
   XX=            -12.9880   YY=             13.9858   ZZ=             -0.9978
   XY=            -16.2923   XZ=              4.6889   YZ=              2.7006
 Octapole moment (field-independent basis, Debye-Ang**2):
  XXX=           -385.8028  YYY=            -98.6316  ZZZ=            -10.4697  XYY=            -72.8451
  XXY=            -72.0575  XXZ=              7.1275  XZZ=           -114.8156  YZZ=            -20.4018
  YYZ=             22.0165  XYZ=             18.1965
 Hexadecapole moment (field-independent basis, Debye-Ang**3):
 XXXX=         -10608.6460 YYYY=          -4032.7025 ZZZZ=           -632.2331 XXXY=             -2.9038
 XXXZ=             13.9995 YYYX=            323.6175 YYYZ=             67.1356 ZZZX=             81.6966
 ZZZY=              3.0528 XXYY=          -2197.7412 XXZZ=          -1899.3792 YYZZ=           -869.8028
 XXYZ=            129.8993 YYXZ=             79.0303 ZZXY=            131.4138
 N-N= 2.376061202075D+03 E-N=-7.403582911509D+03  KE= 1.124824446834D+03
 1\1\GINC-COMPUTE-1-4\SP\RmPW1PW91\GenECP\C20H20I1N1O4\LPASSAGLIA.IQUIR
 \23-Oct-2024\0\\# mPW1PW91/GenECP scrf=(PCM,solvent=chloroform) nmr\\c
 omment\\0,1\C,0,-3.888561,2.35213,-0.347767\C,0,-2.766859,1.559951,1.7
 74225\C,0,0.878281,-1.893875,1.614761\C,0,3.7499,3.901879,0.455673\C,0
 ,5.396932,-2.821767,-0.470535\C,0,4.352872,-3.650108,-0.033336\C,0,5.1
 89962,-1.452605,-0.534682\C,0,3.124002,-3.117144,0.334154\C,0,0.725012
 ,2.821548,-0.261093\C,0,3.953617,-0.892545,-0.17642\C,0,2.90725,-1.725
 302,0.262327\C,0,2.047095,2.415312,-0.292015\C,0,-0.29336,1.88556,-0.0
 68038\C,0,2.396206,1.056387,-0.045149\C,0,-0.024217,0.527658,0.153022\
 C,0,1.34581,0.134847,0.251979\C,0,3.785622,0.574136,-0.19553\C,0,-1.18
 3238,-0.466182,0.084092\C,0,-2.444834,0.244614,-0.425971\C,0,-2.695766
 ,1.601077,0.242727\I,0,-4.175725,-1.165719,-0.243408\N,0,1.683562,-1.1
 6679,0.634489\O,0,4.759623,1.311632,-0.36887\O,0,-0.806378,-1.509797,-
 0.806361\O,0,2.958707,3.377024,-0.614726\O,0,-1.551831,2.404097,-0.158
 432\H,0,-3.838502,2.361588,-1.441084\H,0,-4.832734,1.895973,-0.041132\
 H,0,-3.867688,3.387303,0.006274\H,0,-3.613238,0.953165,2.109153\H,0,-1
 .851266,1.151644,2.211531\H,0,-2.897278,2.577537,2.154265\H,0,1.547994
 ,-2.448094,2.276752\H,0,0.330447,-1.176749,2.227916\H,0,0.174437,-2.58
 9262,1.147192\H,0,4.355145,4.695441,0.012625\H,0,3.10305,4.328625,1.23
 443\H,0,4.406623,3.134927,0.870649\H,0,6.35396,-3.249529,-0.75413\H,0,
 4.495896,-4.726653,0.011365\H,0,5.971222,-0.768884,-0.850321\H,0,2.322
 738,-3.781043,0.638265\H,0,0.473978,3.859561,-0.443267\H,0,-1.410016,-
 0.883411,1.073394\H,0,-2.371507,0.380408,-1.505697\H,0,-1.540088,-2.14
 9005,-0.826408\\Version=AM64L-G09RevC.01\State=1-A\HF=-1141.0136094\RM
 SD=4.956e-09\Dipole=-2.3317165,-1.2388404,1.7287731\Quadrupole=-9.6562
 353,10.3981039,-0.7418686,-12.1129551,3.4861186,2.007819\PG=C01 [X(C20
 H20I1N1O4)]\\@


 The impersonal hand of government can
 never replace the helping hand of a neighbor.
                        -- Hubert H. Humphrey
 Job cpu time:  0 days  4 hours  0 minutes 27.3 seconds.
 File lengths (MBytes):  RWF=    511 Int=      0 D2E=      0 Chk=     19 Scr=      1
 Normal termination of Gaussian 09 at Wed Oct 23 14:35:58 2024.
